     Program PWSCF v.6.2 (svn rev. 14038) starts on  7Nov2020 at  8:34:28

     R & G space division:  proc/nbgrp/npool/nimage =       8
     Waiting for input...
     Reading input from standard input
Warning: card &IONS ignored
Warning: card / ignored

     Current dimensions of program PWSCF are:
     Max number of different atomic species (ntypx) = 10
     Max number of k-points (npk) =  40000
     Max angular momentum in pseudopotentials (lmaxx) =  3

     Subspace diagonalization in iterative solution of the eigenvalue problem:
     a serial algorithm will be used

     bravais-lattice index     =            0
     lattice parameter (alat)  =      31.0924  a.u.
     unit-cell volume          =   29767.8615 (a.u.)^3
     number of atoms/cell      =          230
     number of atomic types    =            2
     number of electrons       =       878.00
     number of Kohn-Sham states=          527
     kinetic-energy cutoff     =      42.0000  Ry
     charge density cutoff     =     168.0000  Ry
     convergence threshold     =      1.0E-08
     mixing beta               =       0.3000
     number of iterations used =            8  plain     mixing
     Exchange-correlation      = SLA-PW-PBX-PBC ( 1  4  3  4 0 0)

     celldm(1)=  31.092392  celldm(2)=   0.000000  celldm(3)=   0.000000
     celldm(4)=   0.000000  celldm(5)=   0.000000  celldm(6)=   0.000000

     crystal axes: (cart. coord. in units of alat)
               a(1) = (   1.000000   0.000000   0.000000 )
               a(2) = (  -0.004065   0.995567   0.000000 )
               a(3) = (   0.019930   0.000535   0.994752 )

     reciprocal axes: (cart. coord. in units 2 pi/alat)
               b(1) = (  1.000000  0.004083 -0.020037 )
               b(2) = (  0.000000  1.004453 -0.000540 )
               b(3) = (  0.000000 -0.000000  1.005276 )

     PseudoPot. # 1 for Si read from file:
     ./Si.pbe-hgh.UPF
     MD5 check sum: 9a9f0f6e09139bfdb36b03ff6bc35900
     Pseudo is Norm-conserving, Zval =  4.0
     Generated in analytical, separable form
     Using radial grid of 1141 points,  3 beta functions with:
                l(1) =   0
                l(2) =   0
                l(3) =   1

     PseudoPot. # 2 for H  read from file:
     ./H.pbe-hgh.UPF
     MD5 check sum: 5f350582108a937bec95f27f5610ab08
     Pseudo is Norm-conserving, Zval =  1.0
     Generated in analytical, separable form
     Using radial grid of  929 points,  0 beta functions with:

     atomic species   valence    mass     pseudopotential
        Si             4.00    28.08000     Si( 1.00)
        H              1.00     1.00784     H ( 1.00)

     No symmetry found

                                    s                        frac. trans.

      isym =  1     identity

 cryst.   s( 1) = (     1          0          0      )
                  (     0          1          0      )
                  (     0          0          1      )

 cart.    s( 1) = (  1.0000000  0.0000000  0.0000000 )
                  (  0.0000000  1.0000000  0.0000000 )
                  (  0.0000000  0.0000000  1.0000000 )

   Cartesian axes

     site n.     atom                  positions (alat units)
         1           Si  tau(   1) = (   0.5145746   0.2505097   0.8913088  )
         2           Si  tau(   2) = (   0.4491696   0.9099121   0.8520360  )
         3           Si  tau(   3) = (   0.7549628   0.2146979   0.7815608  )
         4           Si  tau(   4) = (   0.6628018   0.2298499   0.1804242  )
         5           Si  tau(   5) = (   0.1136257   0.8120222   0.6226880  )
         6           Si  tau(   6) = (   0.0829269   0.8280310   0.9598433  )
         7           Si  tau(   7) = (   0.4283775   0.9266931   0.3327744  )
         8           Si  tau(   8) = (   0.1095798   0.3537256   0.3718055  )
         9           Si  tau(   9) = (   0.9511209   0.9685710   0.6576913  )
        10           Si  tau(  10) = (   0.3406170   0.7884986   0.1831179  )
        11           Si  tau(  11) = (   0.0356201   0.3499210   0.4930608  )
        12           Si  tau(  12) = (   0.0235584   0.5727686   0.7985024  )
        13           Si  tau(  13) = (   0.6303589   0.1982789   0.7126941  )
        14           Si  tau(  14) = (   0.8872441   0.7794173   0.3058445  )
        15           Si  tau(  15) = (   0.8250457   0.3854165   0.1644037  )
        16           Si  tau(  16) = (   0.2954001   0.7381432   0.9707766  )
        17           Si  tau(  17) = (   0.0992067   0.6383920   0.2460450  )
        18           Si  tau(  18) = (   0.0114337   0.4362756   0.3043315  )
        19           Si  tau(  19) = (   0.3241825   0.1083656   0.2095545  )
        20           Si  tau(  20) = (   0.7050876   0.3860242   0.3523253  )
        21           Si  tau(  21) = (   0.8227388   0.5627098   0.3437664  )
        22           Si  tau(  22) = (   0.6691067   0.4085569   0.7839243  )
        23           Si  tau(  23) = (   0.5329435   0.0274554   0.8173580  )
        24           Si  tau(  24) = (   0.4820718   0.2702540   0.3213119  )
        25           Si  tau(  25) = (   0.8840065   0.8623551   0.0856539  )
        26           Si  tau(  26) = (   0.7771139   0.0147023   0.7497466  )
        27           Si  tau(  27) = (   0.6380775   0.9681402   0.7378315  )
        28           Si  tau(  28) = (   0.8486994   0.2128489   0.6737157  )
        29           Si  tau(  29) = (   0.9902863   0.4829346   0.5225254  )
        30           Si  tau(  30) = (   0.6331662   0.8283831   0.7592475  )
        31           Si  tau(  31) = (   0.7559233   0.4734561   0.2525924  )
        32           Si  tau(  32) = (   0.6174671   0.1935474   0.9711068  )
        33           Si  tau(  33) = (   0.5917315   0.4078060   0.0073105  )
        34           Si  tau(  34) = (   1.0130796   0.5522306   0.9365621  )
        35           Si  tau(  35) = (   0.5746255   0.7027603   0.5588428  )
        36           Si  tau(  36) = (   0.1745876   0.3655489   0.8125374  )
        37           Si  tau(  37) = (   0.6646828   0.1265463   0.5923202  )
        38           Si  tau(  38) = (   0.7738522   0.9422340   0.1349023  )
        39           Si  tau(  39) = (   0.1375462   0.0500513   0.8532357  )
        40           Si  tau(  40) = (   0.3920363   0.7583504   0.0525742  )
        41           Si  tau(  41) = (   0.6211234   0.0206887   0.2710879  )
        42           Si  tau(  42) = (   0.7498685   0.6337227   0.6938993  )
        43           Si  tau(  43) = (   0.5649864   0.6586671   0.9281992  )
        44           Si  tau(  44) = (   0.0881591   0.9785025   0.3590011  )
        45           Si  tau(  45) = (   0.3621557   0.1099628   0.8231494  )
        46           Si  tau(  46) = (   0.8222041   0.0778264   0.1702747  )
        47           Si  tau(  47) = (   0.0940158   0.3981372   0.7003144  )
        48           Si  tau(  48) = (   0.2767297   0.9650314   0.5402747  )
        49           Si  tau(  49) = (   0.0785919   0.5824657   0.5767642  )
        50           Si  tau(  50) = (   0.4356244   0.2707790   0.5552119  )
        51           Si  tau(  51) = (   0.6788977   0.0640615   0.9364149  )
        52           Si  tau(  52) = (   0.0316298   0.3415597   0.0179863  )
        53           Si  tau(  53) = (   0.1225547   0.2226385   0.3110520  )
        54           Si  tau(  54) = (   0.9183629   0.1362578   0.9160006  )
        55           Si  tau(  55) = (   0.6660350   0.4493918   0.4740053  )
        56           Si  tau(  56) = (   0.2334619   0.5934676   0.2654466  )
        57           Si  tau(  57) = (   0.4630332   0.0859004   0.4668730  )
        58           Si  tau(  58) = (   0.3557539   0.4933723   0.0412851  )
        59           Si  tau(  59) = (   0.5685246   0.6919668   0.3263264  )
        60           Si  tau(  60) = (   0.9990249   0.2215527   0.0893553  )
[...]
       216           Si  tau( 216) = (   0.3528437   0.6611777   0.2388579  )
       217           H   tau( 217) = (   0.5971588   0.7469688   0.9280450  )
       218           H   tau( 218) = (   0.3746958   0.3979672   0.9156235  )
       219           H   tau( 219) = (   0.5227325   0.6319177   0.1752455  )
       220           H   tau( 220) = (   0.4895172   0.0231787   0.7297790  )
       221           H   tau( 221) = (   0.8242803   0.8055292   0.7542489  )
       222           H   tau( 222) = (   0.1703059   0.4414646   0.5083183  )
       223           H   tau( 223) = (   0.2578956   0.5030765   0.2309974  )
       224           H   tau( 224) = (   0.2161084   0.6075171   0.1210613  )
       225           H   tau( 225) = (   0.5727529   0.3964922   0.2292585  )
       226           H   tau( 226) = (   0.0579152   0.5517549   0.3832541  )
       227           H   tau( 227) = (   0.9646735   0.1629467   0.2506228  )
       228           H   tau( 228) = (   0.0693344   0.3358812   0.1961363  )
       229           H   tau( 229) = (   0.5664055   0.0414308   0.9110825  )
       230           H   tau( 230) = (   0.6578568   0.9908608   0.8745283  )

   Crystallographic axes

     site n.     atom                  positions (cryst. coord.)
         1           Si  tau(   1) = (  0.4977380  0.2511440  0.8960110  )
         2           Si  tau(   2) = (  0.4358120  0.9135040  0.8565310  )
         3           Si  tau(   3) = (  0.7401790  0.2152320  0.7856840  )
         4           Si  tau(   4) = (  0.6601250  0.2307760  0.1813760  )
         5           Si  tau(   5) = (  0.1044640  0.8153020  0.6259730  )
         6           Si  tau(   6) = (  0.0670749  0.8312000  0.9649070  )
         7           Si  tau(   7) = (  0.4254930  0.9306400  0.3345300  )
         8           Si  tau(   8) = (  0.1035740  0.3551000  0.3737670  )
         9           Si  tau(   9) = (  0.9418970  0.9725290  0.6611610  )
        10           Si  tau(  10) = (  0.3401670  0.7919110  0.1840840  )
        11           Si  tau(  11) = (  0.0271691  0.3512130  0.4956620  )
        12           Si  tau(  12) = (  0.0098970  0.5748880  0.8027150  )
        13           Si  tau(  13) = (  0.6168880  0.1987770  0.7164540  )
        14           Si  tau(  14) = (  0.8842980  0.7827230  0.3074580  )
        15           Si  tau(  15) = (  0.8233250  0.3870440  0.1652710  )
        16           Si  tau(  16) = (  0.2789620  0.7409060  0.9758980  )
        17           Si  tau(  17) = (  0.0968830  0.6411020  0.2473430  )
        18           Si  tau(  18) = (  0.0071169  0.4380540  0.3059370  )
        19           Si  tau(  19) = (  0.3204260  0.1087350  0.2106600  )
        20           Si  tau(  20) = (  0.6996040  0.3875530  0.3541840  )
        21           Si  tau(  21) = (  0.8181480  0.5650300  0.3455800  )
        22           Si  tau(  22) = (  0.6550670  0.4099530  0.7880600  )
        23           Si  tau(  23) = (  0.5166780  0.0271363  0.8216700  )
        24           Si  tau(  24) = (  0.4767370  0.2712840  0.3230070  )
        25           Si  tau(  25) = (  0.8858110  0.8661490  0.0861058  )
        26           Si  tau(  26) = (  0.7621510  0.0143630  0.7537020  )
        27           Si  tau(  27) = (  0.6272460  0.9720530  0.7417240  )
[...]
     atom   44 type  1   force =     0.00000000    0.00000000    0.00000000
     atom   45 type  1   force =     0.00000000    0.00000000    0.00000000
     atom   46 type  1   force =     0.00000000    0.00000000    0.00000000
     atom   47 type  1   force =     0.00000000    0.00000000    0.00000000
     atom   48 type  1   force =     0.00000000    0.00000000    0.00000000
     atom   49 type  1   force =     0.00000000    0.00000000    0.00000000
     atom   50 type  1   force =     0.00000000    0.00000000    0.00000000
     atom   51 type  1   force =     0.00000000    0.00000000    0.00000000
     atom   52 type  1   force =     0.00000000    0.00000000    0.00000000
     atom   53 type  1   force =     0.00000000    0.00000000    0.00000000
     atom   54 type  1   force =     0.00000000    0.00000000    0.00000000
     atom   55 type  1   force =     0.00000000    0.00000000    0.00000000
     atom   56 type  1   force =     0.00000000    0.00000000    0.00000000
     atom   57 type  1   force =     0.00000000    0.00000000    0.00000000
     atom   58 type  1   force =     0.00000000    0.00000000    0.00000000
     atom   59 type  1   force =     0.00000000    0.00000000    0.00000000
     atom   60 type  1   force =     0.00000000    0.00000000    0.00000000
[...]
     atom  216 type  1   force =     0.00000000    0.00000000    0.00000000
     atom  217 type  2   force =     0.00000000    0.00000000    0.00000000
     atom  218 type  2   force =     0.00000000    0.00000000    0.00000000
     atom  219 type  2   force =     0.00000000    0.00000000    0.00000000
     atom  220 type  2   force =     0.00000000    0.00000000    0.00000000
     atom  221 type  2   force =     0.00000000    0.00000000    0.00000000
     atom  222 type  2   force =     0.00000000    0.00000000    0.00000000
     atom  223 type  2   force =     0.00000000    0.00000000    0.00000000
     atom  224 type  2   force =     0.00000000    0.00000000    0.00000000
     atom  225 type  2   force =     0.00000000    0.00000000    0.00000000
     atom  226 type  2   force =     0.00000000    0.00000000    0.00000000
     atom  227 type  2   force =     0.00000000    0.00000000    0.00000000
     atom  228 type  2   force =     0.00000000    0.00000000    0.00000000
     atom  229 type  2   force =     0.00000000    0.00000000    0.00000000
     atom  230 type  2   force =     0.00000000    0.00000000    0.00000000
     The Hubbard contrib.    to forces
     atom    1 type  1   force =     0.00000000    0.00000000    0.00000000
     atom    2 type  1   force =     0.00000000    0.00000000    0.00000000
     atom    3 type  1   force =     0.00000000    0.00000000    0.00000000
     atom    4 type  1   force =     0.00000000    0.00000000    0.00000000
     atom    5 type  1   force =     0.00000000    0.00000000    0.00000000
     atom    6 type  1   force =     0.00000000    0.00000000    0.00000000
     atom    7 type  1   force =     0.00000000    0.00000000    0.00000000
     atom    8 type  1   force =     0.00000000    0.00000000    0.00000000
     atom    9 type  1   force =     0.00000000    0.00000000    0.00000000
     atom   10 type  1   force =     0.00000000    0.00000000    0.00000000
     atom   11 type  1   force =     0.00000000    0.00000000    0.00000000
     atom   12 type  1   force =     0.00000000    0.00000000    0.00000000
     atom   13 type  1   force =     0.00000000    0.00000000    0.00000000
     atom   14 type  1   force =     0.00000000    0.00000000    0.00000000
     atom   15 type  1   force =     0.00000000    0.00000000    0.00000000
     atom   16 type  1   force =     0.00000000    0.00000000    0.00000000
     atom   17 type  1   force =     0.00000000    0.00000000    0.00000000
     atom   18 type  1   force =     0.00000000    0.00000000    0.00000000
     atom   19 type  1   force =     0.00000000    0.00000000    0.00000000
     atom   20 type  1   force =     0.00000000    0.00000000    0.00000000
     atom   21 type  1   force =     0.00000000    0.00000000    0.00000000
     atom   22 type  1   force =     0.00000000    0.00000000    0.00000000
     atom   23 type  1   force =     0.00000000    0.00000000    0.00000000
     atom   24 type  1   force =     0.00000000    0.00000000    0.00000000
     atom   25 type  1   force =     0.00000000    0.00000000    0.00000000
     atom   26 type  1   force =     0.00000000    0.00000000    0.00000000
     atom   27 type  1   force =     0.00000000    0.00000000    0.00000000
     atom   28 type  1   force =     0.00000000    0.00000000    0.00000000
     atom   29 type  1   force =     0.00000000    0.00000000    0.00000000
     atom   30 type  1   force =     0.00000000    0.00000000    0.00000000
     atom   31 type  1   force =     0.00000000    0.00000000    0.00000000
     atom   32 type  1   force =     0.00000000    0.00000000    0.00000000
     atom   33 type  1   force =     0.00000000    0.00000000    0.00000000
     atom   34 type  1   force =     0.00000000    0.00000000    0.00000000
     atom   35 type  1   force =     0.00000000    0.00000000    0.00000000
     atom   36 type  1   force =     0.00000000    0.00000000    0.00000000
     atom   37 type  1   force =     0.00000000    0.00000000    0.00000000
     atom   38 type  1   force =     0.00000000    0.00000000    0.00000000
     atom   39 type  1   force =     0.00000000    0.00000000    0.00000000
     atom   40 type  1   force =     0.00000000    0.00000000    0.00000000
     atom   41 type  1   force =     0.00000000    0.00000000    0.00000000
     atom   42 type  1   force =     0.00000000    0.00000000    0.00000000
     atom   43 type  1   force =     0.00000000    0.00000000    0.00000000
     atom   44 type  1   force =     0.00000000    0.00000000    0.00000000
     atom   45 type  1   force =     0.00000000    0.00000000    0.00000000
     atom   46 type  1   force =     0.00000000    0.00000000    0.00000000
     atom   47 type  1   force =     0.00000000    0.00000000    0.00000000
     atom   48 type  1   force =     0.00000000    0.00000000    0.00000000
     atom   49 type  1   force =     0.00000000    0.00000000    0.00000000
     atom   50 type  1   force =     0.00000000    0.00000000    0.00000000
     atom   51 type  1   force =     0.00000000    0.00000000    0.00000000
     atom   52 type  1   force =     0.00000000    0.00000000    0.00000000
     atom   53 type  1   force =     0.00000000    0.00000000    0.00000000
     atom   54 type  1   force =     0.00000000    0.00000000    0.00000000
     atom   55 type  1   force =     0.00000000    0.00000000    0.00000000
     atom   56 type  1   force =     0.00000000    0.00000000    0.00000000
     atom   57 type  1   force =     0.00000000    0.00000000    0.00000000
     atom   58 type  1   force =     0.00000000    0.00000000    0.00000000
     atom   59 type  1   force =     0.00000000    0.00000000    0.00000000
     atom   60 type  1   force =     0.00000000    0.00000000    0.00000000
[...]
     atom  216 type  1   force =     0.00000000    0.00000000    0.00000000
     atom  217 type  2   force =     0.00000000    0.00000000    0.00000000
     atom  218 type  2   force =     0.00000000    0.00000000    0.00000000
     atom  219 type  2   force =     0.00000000    0.00000000    0.00000000
     atom  220 type  2   force =     0.00000000    0.00000000    0.00000000
     atom  221 type  2   force =     0.00000000    0.00000000    0.00000000
     atom  222 type  2   force =     0.00000000    0.00000000    0.00000000
     atom  223 type  2   force =     0.00000000    0.00000000    0.00000000
     atom  224 type  2   force =     0.00000000    0.00000000    0.00000000
     atom  225 type  2   force =     0.00000000    0.00000000    0.00000000
     atom  226 type  2   force =     0.00000000    0.00000000    0.00000000
     atom  227 type  2   force =     0.00000000    0.00000000    0.00000000
     atom  228 type  2   force =     0.00000000    0.00000000    0.00000000
     atom  229 type  2   force =     0.00000000    0.00000000    0.00000000
     atom  230 type  2   force =     0.00000000    0.00000000    0.00000000
     The SCF correction term to forces
     atom    1 type  1   force =    -0.00000360    0.00000094    0.00000714
     atom    2 type  1   force =    -0.00000108   -0.00000511    0.00000820
     atom    3 type  1   force =    -0.00000474    0.00000030    0.00000338
     atom    4 type  1   force =    -0.00000809    0.00000225   -0.00000019
     atom    5 type  1   force =     0.00000243   -0.00000240    0.00000264
     atom    6 type  1   force =     0.00000595   -0.00000492    0.00000223
     atom    7 type  1   force =    -0.00000296   -0.00000329   -0.00000772
     atom    8 type  1   force =     0.00000093   -0.00000261   -0.00000683
     atom    9 type  1   force =     0.00000062   -0.00000525    0.00000100
     atom   10 type  1   force =     0.00000458   -0.00000260   -0.00000643
     atom   11 type  1   force =    -0.00000130   -0.00000075   -0.00000299
     atom   12 type  1   force =     0.00000360    0.00000427    0.00000639
     atom   13 type  1   force =    -0.00000342    0.00000061    0.00000235
     atom   14 type  1   force =    -0.00000104   -0.00000162   -0.00000374
     atom   15 type  1   force =    -0.00000149    0.00000441   -0.00000000
     atom   16 type  1   force =     0.00000474   -0.00000158    0.00000670
     atom   17 type  1   force =     0.00000673    0.00000215   -0.00000852
     atom   18 type  1   force =     0.00000116   -0.00000072   -0.00000593
     atom   19 type  1   force =     0.00000183   -0.00000223   -0.00000432
     atom   20 type  1   force =    -0.00000461    0.00000359   -0.00000333
     atom   21 type  1   force =    -0.00000496    0.00000049   -0.00000371
     atom   22 type  1   force =    -0.00000349    0.00000292    0.00000242
     atom   23 type  1   force =    -0.00000196   -0.00000420    0.00000630
     atom   24 type  1   force =    -0.00000259   -0.00000003   -0.00000699
     atom   25 type  1   force =     0.00000169   -0.00000411   -0.00000290
     atom   26 type  1   force =    -0.00000305   -0.00000596    0.00000381
     atom   27 type  1   force =    -0.00000281   -0.00000448    0.00000386
     atom   28 type  1   force =    -0.00000229    0.00000148   -0.00000015
     atom   29 type  1   force =    -0.00000157    0.00000160    0.00000047
     atom   30 type  1   force =    -0.00000266   -0.00000221    0.00000384
     atom   31 type  1   force =    -0.00000535    0.00000351   -0.00000215
     atom   32 type  1   force =    -0.00000754   -0.00000045    0.00000406
     atom   33 type  1   force =    -0.00000778    0.00000350    0.00000415
     atom   34 type  1   force =     0.00000610    0.00000418    0.00000300
     atom   35 type  1   force =    -0.00000280   -0.00000024   -0.00000164
     atom   36 type  1   force =     0.00000366    0.00000602    0.00000873
     atom   37 type  1   force =    -0.00000392   -0.00000060   -0.00000128
     atom   38 type  1   force =    -0.00000337   -0.00000387   -0.00000251
     atom   39 type  1   force =     0.00000349   -0.00000478    0.00000735
     atom   40 type  1   force =    -0.00000212   -0.00000399    0.00000462
     atom   41 type  1   force =    -0.00000931   -0.00000256   -0.00000272
     atom   42 type  1   force =    -0.00000138    0.00000217    0.00000237
     atom   43 type  1   force =    -0.00000709    0.00000206    0.00000781
     atom   44 type  1   force =     0.00000628    0.00000012   -0.00000447
     atom   45 type  1   force =     0.00000242   -0.00000267    0.00000920
     atom   46 type  1   force =    -0.00000032   -0.00000107   -0.00000089
     atom   47 type  1   force =     0.00000133    0.00000554    0.00000468
     atom   48 type  1   force =     0.00000234   -0.00000304   -0.00000518
     atom   49 type  1   force =     0.00000175    0.00000315    0.00000435
     atom   50 type  1   force =     0.00000265    0.00000025   -0.00000321
     atom   51 type  1   force =    -0.00000633   -0.00000330    0.00000229
     atom   52 type  1   force =     0.00000709    0.00000455    0.00000280
     atom   53 type  1   force =     0.00000423   -0.00000282   -0.00000595
     atom   54 type  1   force =     0.00000129   -0.00000263    0.00000346
     atom   55 type  1   force =    -0.00000351    0.00000266   -0.00000368
     atom   56 type  1   force =     0.00000821    0.00000388   -0.00001000
     atom   57 type  1   force =    -0.00000253   -0.00000271   -0.00000621
     atom   58 type  1   force =     0.00000038    0.00000594    0.00000410
     atom   59 type  1   force =    -0.00000672   -0.00000143   -0.00000618
     atom   60 type  1   force =     0.00000699    0.00000140    0.00000133
[...]
     atom  216 type  1   force =     0.00000504    0.00000327   -0.00001077
     atom  217 type  2   force =    -0.00000175   -0.00000020    0.00000177
     atom  218 type  2   force =    -0.00000026    0.00000113    0.00000236
     atom  219 type  2   force =    -0.00000213    0.00000018   -0.00000067
     atom  220 type  2   force =     0.00000008   -0.00000108    0.00000116
     atom  221 type  2   force =    -0.00000020   -0.00000061    0.00000102
     atom  222 type  2   force =     0.00000032    0.00000072    0.00000012
     atom  223 type  2   force =     0.00000179    0.00000131   -0.00000292
     atom  224 type  2   force =     0.00000204    0.00000062   -0.00000154
     atom  225 type  2   force =    -0.00000168    0.00000129   -0.00000069
     atom  226 type  2   force =     0.00000063   -0.00000003   -0.00000107
     atom  227 type  2   force =     0.00000139   -0.00000007   -0.00000039
     atom  228 type  2   force =     0.00000135    0.00000024   -0.00000102
     atom  229 type  2   force =    -0.00000113   -0.00000102    0.00000144
     atom  230 type  2   force =    -0.00000127   -0.00000119    0.00000087

     Total force =     0.157999     Total SCF correction =     0.000105

     Computing stress (Cartesian axis) and pressure

          total   stress  (Ry/bohr**3)                   (kbar)     P=   14.02
   0.00008152   0.00000786   0.00004039         11.99      1.16      5.94
   0.00000786   0.00011361   0.00000134          1.16     16.71      0.20
   0.00004039   0.00000134   0.00009079          5.94      0.20     13.36

     kinetic stress (kbar)   2278.58      0.59      4.82
                                0.59   2280.15      0.68
                                4.82      0.68   2280.73

     local   stress (kbar)  -1326.80     -5.14     -8.40
                               -5.14  -1312.83    -13.76
                               -8.40    -13.76  -1357.41

     nonloc. stress (kbar)   2542.86      2.55     -0.92
                                2.55   2538.32      0.56
                               -0.92      0.56   2549.75

     hartree stress (kbar)    256.81     -0.45      7.20
                               -0.45    264.88      7.04
                                7.20      7.04    260.69

     exc-cor stress (kbar)   -803.61      0.01     -0.00
                                0.01   -803.68     -0.06
                               -0.00     -0.06   -803.49

     corecor stress (kbar)      0.00      0.00      0.00
                                0.00      0.00      0.00
                                0.00      0.00      0.00

     ewald   stress (kbar)  -2935.86      3.59      3.25
                                3.59  -2950.13      5.74
                                3.25      5.74  -2916.90

     hubbard stress (kbar)      0.00      0.00      0.00
                                0.00      0.00      0.00
                                0.00      0.00      0.00

     london  stress (kbar)      0.00      0.00      0.00
                                0.00      0.00      0.00
                                0.00      0.00      0.00

     DFT-D3  stress (kbar)      0.00      0.00      0.00
                                0.00      0.00      0.00
                                0.00      0.00      0.00

     XDM     stress (kbar)      0.00      0.00      0.00
                                0.00      0.00      0.00
                                0.00      0.00      0.00

     dft-nl  stress (kbar)      0.00      0.00      0.00
                                0.00      0.00      0.00
                                0.00      0.00      0.00

     TS-vdW  stress (kbar)      0.00      0.00      0.00
                                0.00      0.00      0.00
                                0.00      0.00      0.00

     Writing output data file amorph_optimize1.save

     General routines

     Parallel routines

   This run was terminated on:  12:56:41   7Nov2020

   JOB DONE.