     Program PWSCF v.6.2 (svn rev. 14038) starts on  7Nov2020 at  8:40:25

     R & G space division:  proc/nbgrp/npool/nimage =       8
     Waiting for input...
     Reading input from standard input
Warning: card &IONS ignored
Warning: card / ignored

     Current dimensions of program PWSCF are:
     Max number of different atomic species (ntypx) = 10
     Max number of k-points (npk) =  40000
     Max angular momentum in pseudopotentials (lmaxx) =  3

     Subspace diagonalization in iterative solution of the eigenvalue problem:
     a serial algorithm will be used

     bravais-lattice index     =            0
     lattice parameter (alat)  =      20.9873  a.u.
     unit-cell volume          =    9244.1971 (a.u.)^3
     number of atoms/cell      =           72
     number of atomic types    =            2
     number of electrons       =       264.00
     number of Kohn-Sham states=          158
     kinetic-energy cutoff     =      42.0000  Ry
     charge density cutoff     =     168.0000  Ry
     convergence threshold     =      1.0E-08
     mixing beta               =       0.3000
     number of iterations used =            8  plain     mixing
     Exchange-correlation      = SLA-PW-PBX-PBC ( 1  4  3  4 0 0)

     celldm(1)=  20.987292  celldm(2)=   0.000000  celldm(3)=   0.000000
     celldm(4)=   0.000000  celldm(5)=   0.000000  celldm(6)=   0.000000

     crystal axes: (cart. coord. in units of alat)
               a(1) = (   1.000000   0.000000   0.000000 )
               a(2) = (   0.000000   1.000000   0.000000 )
               a(3) = (   0.000000   0.000000   1.000000 )

     reciprocal axes: (cart. coord. in units 2 pi/alat)
               b(1) = (  1.000000  0.000000  0.000000 )
               b(2) = (  0.000000  1.000000  0.000000 )
               b(3) = (  0.000000  0.000000  1.000000 )

     PseudoPot. # 1 for Si read from file:
     ./Si.pbe-hgh.UPF
     MD5 check sum: 9a9f0f6e09139bfdb36b03ff6bc35900
     Pseudo is Norm-conserving, Zval =  4.0
     Generated in analytical, separable form
     Using radial grid of 1141 points,  3 beta functions with:
                l(1) =   0
                l(2) =   0
                l(3) =   1

     PseudoPot. # 2 for H  read from file:
     ./H.pbe-hgh.UPF
     MD5 check sum: 5f350582108a937bec95f27f5610ab08
     Pseudo is Norm-conserving, Zval =  1.0
     Generated in analytical, separable form
     Using radial grid of  929 points,  0 beta functions with:

     atomic species   valence    mass     pseudopotential
        Si             4.00    28.08000     Si( 1.00)
        H              1.00     1.00784     H ( 1.00)

     No symmetry found

                                    s                        frac. trans.

      isym =  1     identity

 cryst.   s( 1) = (     1          0          0      )
                  (     0          1          0      )
                  (     0          0          1      )

 cart.    s( 1) = (  1.0000000  0.0000000  0.0000000 )
                  (  0.0000000  1.0000000  0.0000000 )
                  (  0.0000000  0.0000000  1.0000000 )

   Cartesian axes

     site n.     atom                  positions (alat units)
         1           Si  tau(   1) = (   0.9728430   0.7221950   0.5722100  )
         2           Si  tau(   2) = (   0.9832210   0.4213620   0.1402280  )
         3           Si  tau(   3) = (   0.9210040   0.5355280   0.6556510  )
         4           Si  tau(   4) = (   0.4379240   0.3670740   0.0427325  )
         5           Si  tau(   5) = (   0.1030910   0.2621320   0.0575938  )
         6           Si  tau(   6) = (   0.3400770   0.6977910   0.0502784  )
         7           Si  tau(   7) = (   0.1343260   0.0270432   0.3006400  )
         8           Si  tau(   8) = (   0.4291510   0.2420600   0.4171370  )
         9           Si  tau(   9) = (   0.9013130   0.1813310   0.7812080  )
        10           Si  tau(  10) = (   0.2164970   0.9606830   0.6284790  )
        11           Si  tau(  11) = (   0.3736160   0.5289880   0.1731860  )
        12           Si  tau(  12) = (   0.1756840   0.7549920   0.5987720  )
        13           Si  tau(  13) = (   0.8793550   0.8571720   0.8741450  )
        14           Si  tau(  14) = (   0.4237670   0.9476050   0.6009000  )
        15           Si  tau(  15) = (   0.5071500   0.8320600   0.7607440  )
        16           Si  tau(  16) = (   0.8503690   0.8630630   0.6661810  )
        17           Si  tau(  17) = (   0.0634404   0.5035300   0.8165790  )
        18           Si  tau(  18) = (   0.0854355   0.2851880   0.8406850  )
        19           Si  tau(  19) = (   0.6396720   0.5656810   0.9067130  )
        20           Si  tau(  20) = (   0.8879120   0.0595123   0.5985780  )
        21           Si  tau(  21) = (   0.9562160   0.7223200   0.3611560  )
        22           Si  tau(  22) = (   0.9464000   0.4031780   0.4870750  )
        23           Si  tau(  23) = (   0.7645840   0.7999400   0.3154220  )
        24           Si  tau(  24) = (   0.5324760   0.1244390   0.5606710  )
        25           Si  tau(  25) = (   0.4944540   0.9641020   0.2660640  )
        26           Si  tau(  26) = (   0.2357660   0.5269020   0.3353750  )
        27           Si  tau(  27) = (   0.6696550   0.7542840   0.6480320  )
        28           Si  tau(  28) = (   0.3381740   0.1100080   0.2759030  )
        29           Si  tau(  29) = (   0.2024300   0.9865540   0.8381590  )
        30           Si  tau(  30) = (   0.7150570   0.5591120   0.7103950  )
        31           Si  tau(  31) = (   0.6144140   0.7189380   0.4402600  )
        32           Si  tau(  32) = (   0.3628760   0.4923240   0.6416330  )
        33           Si  tau(  33) = (   0.5611810   0.2604680   0.7167530  )
        34           Si  tau(  34) = (   0.7119060   0.2392370   0.8599330  )
        35           Si  tau(  35) = (   0.0808817   0.0728417   0.5042400  )
        36           Si  tau(  36) = (   0.7959570   0.3233020   0.1735820  )
        37           Si  tau(  37) = (   0.4210270   0.6581550   0.8560790  )
        38           Si  tau(  38) = (   0.6849370   0.7277850   0.1367830  )
        39           Si  tau(  39) = (   0.1323680   0.7511600   0.0729211  )
        40           Si  tau(  40) = (   0.3064790   0.2111910   0.0971513  )
        41           Si  tau(  41) = (   0.4427090   0.8355650   0.4235610  )
        42           Si  tau(  42) = (   0.8084920   0.1110290   0.1468690  )
        43           Si  tau(  43) = (   0.7292370   0.1203840   0.4719670  )
        44           Si  tau(  44) = (   0.5398020   0.5622110   0.3050020  )
        45           Si  tau(  45) = (   0.4982760   0.8264110   0.1058850  )
        46           Si  tau(  46) = (   0.1112080   0.2782100   0.5399310  )
        47           Si  tau(  47) = (   0.1261120   0.8156150   0.2779090  )
        48           Si  tau(  48) = (   0.9989450   0.5879130   0.0051816  )
        49           Si  tau(  49) = (   0.2838680   0.3790060   0.4806220  )
        50           Si  tau(  50) = (   0.2633910   0.7239660   0.4085100  )
        51           Si  tau(  51) = (   0.0186117   0.0809401   0.1269700  )
        52           Si  tau(  52) = (   0.7764260   0.3123020   0.3882590  )
        53           Si  tau(  53) = (   0.6936580   0.0653598   0.9745740  )
        54           Si  tau(  54) = (   0.3581360   0.0848180   0.9370690  )
        55           Si  tau(  55) = (   0.8069950   0.6823530   0.9731480  )
        56           Si  tau(  56) = (   0.5212320   0.9500740   0.9398930  )
        57           Si  tau(  57) = (   0.6511810   0.3790560   0.0167652  )
        58           Si  tau(  58) = (   0.0223727   0.5188450   0.3248790  )
        59           Si  tau(  59) = (   0.5849070   0.3904680   0.4102530  )
        60           Si  tau(  60) = (   0.5679340   0.4446210   0.6145730  )
        61           Si  tau(  61) = (   0.0501773   0.9292820   0.9763950  )
        62           Si  tau(  62) = (   0.7072280   0.0031693   0.2991820  )
        63           Si  tau(  63) = (   0.2352530   0.6192090   0.7486690  )
        64           Si  tau(  64) = (   0.3978610   0.2723440   0.8472060  )
        65           H   tau(  65) = (   0.9281020   0.0689967   0.8609670  )
        66           H   tau(  66) = (   0.7865680   0.9648940   0.9174660  )
        67           H   tau(  67) = (   0.1391400   0.1524740   0.8019400  )
        68           H   tau(  68) = (   0.2584200   0.3143510   0.8487570  )
        69           H   tau(  69) = (   0.2686830   0.8633630   0.8582860  )
        70           H   tau(  70) = (   0.3406940   0.3934930   0.7414440  )
        71           H   tau(  71) = (   0.6430930   0.5932450   0.2040240  )
        72           H   tau(  72) = (   0.1414250   0.2807120   0.6885420  )

   Crystallographic axes

     site n.     atom                  positions (cryst. coord.)
         1           Si  tau(   1) = (  0.9728430  0.7221950  0.5722100  )
         2           Si  tau(   2) = (  0.9832210  0.4213620  0.1402280  )
         3           Si  tau(   3) = (  0.9210040  0.5355280  0.6556510  )
         4           Si  tau(   4) = (  0.4379240  0.3670740  0.0427325  )
         5           Si  tau(   5) = (  0.1030910  0.2621320  0.0575938  )
         6           Si  tau(   6) = (  0.3400770  0.6977910  0.0502784  )
         7           Si  tau(   7) = (  0.1343260  0.0270432  0.3006400  )
         8           Si  tau(   8) = (  0.4291510  0.2420600  0.4171370  )
         9           Si  tau(   9) = (  0.9013130  0.1813310  0.7812080  )
        10           Si  tau(  10) = (  0.2164970  0.9606830  0.6284790  )
        11           Si  tau(  11) = (  0.3736160  0.5289880  0.1731860  )
        12           Si  tau(  12) = (  0.1756840  0.7549920  0.5987720  )
        13           Si  tau(  13) = (  0.8793550  0.8571720  0.8741450  )
        14           Si  tau(  14) = (  0.4237670  0.9476050  0.6009000  )
        15           Si  tau(  15) = (  0.5071500  0.8320600  0.7607440  )
        16           Si  tau(  16) = (  0.8503690  0.8630630  0.6661810  )
        17           Si  tau(  17) = (  0.0634404  0.5035300  0.8165790  )
        18           Si  tau(  18) = (  0.0854355  0.2851880  0.8406850  )
        19           Si  tau(  19) = (  0.6396720  0.5656810  0.9067130  )
        20           Si  tau(  20) = (  0.8879120  0.0595123  0.5985780  )
        21           Si  tau(  21) = (  0.9562160  0.7223200  0.3611560  )
        22           Si  tau(  22) = (  0.9464000  0.4031780  0.4870750  )
        23           Si  tau(  23) = (  0.7645840  0.7999400  0.3154220  )
        24           Si  tau(  24) = (  0.5324760  0.1244390  0.5606710  )
        25           Si  tau(  25) = (  0.4944540  0.9641020  0.2660640  )
        26           Si  tau(  26) = (  0.2357660  0.5269020  0.3353750  )
        27           Si  tau(  27) = (  0.6696550  0.7542840  0.6480320  )
        28           Si  tau(  28) = (  0.3381740  0.1100080  0.2759030  )
        29           Si  tau(  29) = (  0.2024300  0.9865540  0.8381590  )
        30           Si  tau(  30) = (  0.7150570  0.5591120  0.7103950  )
[...]
     atom   35 type  1   force =     0.00000000    0.00000000    0.00000000
     atom   36 type  1   force =     0.00000000    0.00000000    0.00000000
     atom   37 type  1   force =     0.00000000    0.00000000    0.00000000
     atom   38 type  1   force =     0.00000000    0.00000000    0.00000000
     atom   39 type  1   force =     0.00000000    0.00000000    0.00000000
     atom   40 type  1   force =     0.00000000    0.00000000    0.00000000
     atom   41 type  1   force =     0.00000000    0.00000000    0.00000000
     atom   42 type  1   force =     0.00000000    0.00000000    0.00000000
     atom   43 type  1   force =     0.00000000    0.00000000    0.00000000
     atom   44 type  1   force =     0.00000000    0.00000000    0.00000000
     atom   45 type  1   force =     0.00000000    0.00000000    0.00000000
     atom   46 type  1   force =     0.00000000    0.00000000    0.00000000
     atom   47 type  1   force =     0.00000000    0.00000000    0.00000000
     atom   48 type  1   force =     0.00000000    0.00000000    0.00000000
     atom   49 type  1   force =     0.00000000    0.00000000    0.00000000
     atom   50 type  1   force =     0.00000000    0.00000000    0.00000000
     atom   51 type  1   force =     0.00000000    0.00000000    0.00000000
     atom   52 type  1   force =     0.00000000    0.00000000    0.00000000
     atom   53 type  1   force =     0.00000000    0.00000000    0.00000000
     atom   54 type  1   force =     0.00000000    0.00000000    0.00000000
     atom   55 type  1   force =     0.00000000    0.00000000    0.00000000
     atom   56 type  1   force =     0.00000000    0.00000000    0.00000000
     atom   57 type  1   force =     0.00000000    0.00000000    0.00000000
     atom   58 type  1   force =     0.00000000    0.00000000    0.00000000
     atom   59 type  1   force =     0.00000000    0.00000000    0.00000000
     atom   60 type  1   force =     0.00000000    0.00000000    0.00000000
     atom   61 type  1   force =     0.00000000    0.00000000    0.00000000
     atom   62 type  1   force =     0.00000000    0.00000000    0.00000000
     atom   63 type  1   force =     0.00000000    0.00000000    0.00000000
     atom   64 type  1   force =     0.00000000    0.00000000    0.00000000
     atom   65 type  2   force =     0.00000000    0.00000000    0.00000000
     atom   66 type  2   force =     0.00000000    0.00000000    0.00000000
     atom   67 type  2   force =     0.00000000    0.00000000    0.00000000
     atom   68 type  2   force =     0.00000000    0.00000000    0.00000000
     atom   69 type  2   force =     0.00000000    0.00000000    0.00000000
     atom   70 type  2   force =     0.00000000    0.00000000    0.00000000
     atom   71 type  2   force =     0.00000000    0.00000000    0.00000000
     atom   72 type  2   force =     0.00000000    0.00000000    0.00000000
     The Hubbard contrib.    to forces
     atom    1 type  1   force =     0.00000000    0.00000000    0.00000000
     atom    2 type  1   force =     0.00000000    0.00000000    0.00000000
     atom    3 type  1   force =     0.00000000    0.00000000    0.00000000
     atom    4 type  1   force =     0.00000000    0.00000000    0.00000000
     atom    5 type  1   force =     0.00000000    0.00000000    0.00000000
     atom    6 type  1   force =     0.00000000    0.00000000    0.00000000
     atom    7 type  1   force =     0.00000000    0.00000000    0.00000000
     atom    8 type  1   force =     0.00000000    0.00000000    0.00000000
     atom    9 type  1   force =     0.00000000    0.00000000    0.00000000
     atom   10 type  1   force =     0.00000000    0.00000000    0.00000000
     atom   11 type  1   force =     0.00000000    0.00000000    0.00000000
     atom   12 type  1   force =     0.00000000    0.00000000    0.00000000
     atom   13 type  1   force =     0.00000000    0.00000000    0.00000000
     atom   14 type  1   force =     0.00000000    0.00000000    0.00000000
     atom   15 type  1   force =     0.00000000    0.00000000    0.00000000
     atom   16 type  1   force =     0.00000000    0.00000000    0.00000000
     atom   17 type  1   force =     0.00000000    0.00000000    0.00000000
     atom   18 type  1   force =     0.00000000    0.00000000    0.00000000
     atom   19 type  1   force =     0.00000000    0.00000000    0.00000000
     atom   20 type  1   force =     0.00000000    0.00000000    0.00000000
     atom   21 type  1   force =     0.00000000    0.00000000    0.00000000
     atom   22 type  1   force =     0.00000000    0.00000000    0.00000000
     atom   23 type  1   force =     0.00000000    0.00000000    0.00000000
     atom   24 type  1   force =     0.00000000    0.00000000    0.00000000
     atom   25 type  1   force =     0.00000000    0.00000000    0.00000000
     atom   26 type  1   force =     0.00000000    0.00000000    0.00000000
     atom   27 type  1   force =     0.00000000    0.00000000    0.00000000
     atom   28 type  1   force =     0.00000000    0.00000000    0.00000000
     atom   29 type  1   force =     0.00000000    0.00000000    0.00000000
     atom   30 type  1   force =     0.00000000    0.00000000    0.00000000
     atom   31 type  1   force =     0.00000000    0.00000000    0.00000000
     atom   32 type  1   force =     0.00000000    0.00000000    0.00000000
     atom   33 type  1   force =     0.00000000    0.00000000    0.00000000
     atom   34 type  1   force =     0.00000000    0.00000000    0.00000000
     atom   35 type  1   force =     0.00000000    0.00000000    0.00000000
     atom   36 type  1   force =     0.00000000    0.00000000    0.00000000
     atom   37 type  1   force =     0.00000000    0.00000000    0.00000000
     atom   38 type  1   force =     0.00000000    0.00000000    0.00000000
     atom   39 type  1   force =     0.00000000    0.00000000    0.00000000
     atom   40 type  1   force =     0.00000000    0.00000000    0.00000000
     atom   41 type  1   force =     0.00000000    0.00000000    0.00000000
     atom   42 type  1   force =     0.00000000    0.00000000    0.00000000
     atom   43 type  1   force =     0.00000000    0.00000000    0.00000000
     atom   44 type  1   force =     0.00000000    0.00000000    0.00000000
     atom   45 type  1   force =     0.00000000    0.00000000    0.00000000
     atom   46 type  1   force =     0.00000000    0.00000000    0.00000000
     atom   47 type  1   force =     0.00000000    0.00000000    0.00000000
     atom   48 type  1   force =     0.00000000    0.00000000    0.00000000
     atom   49 type  1   force =     0.00000000    0.00000000    0.00000000
     atom   50 type  1   force =     0.00000000    0.00000000    0.00000000
     atom   51 type  1   force =     0.00000000    0.00000000    0.00000000
     atom   52 type  1   force =     0.00000000    0.00000000    0.00000000
     atom   53 type  1   force =     0.00000000    0.00000000    0.00000000
     atom   54 type  1   force =     0.00000000    0.00000000    0.00000000
     atom   55 type  1   force =     0.00000000    0.00000000    0.00000000
     atom   56 type  1   force =     0.00000000    0.00000000    0.00000000
     atom   57 type  1   force =     0.00000000    0.00000000    0.00000000
     atom   58 type  1   force =     0.00000000    0.00000000    0.00000000
     atom   59 type  1   force =     0.00000000    0.00000000    0.00000000
     atom   60 type  1   force =     0.00000000    0.00000000    0.00000000
     atom   61 type  1   force =     0.00000000    0.00000000    0.00000000
     atom   62 type  1   force =     0.00000000    0.00000000    0.00000000
     atom   63 type  1   force =     0.00000000    0.00000000    0.00000000
     atom   64 type  1   force =     0.00000000    0.00000000    0.00000000
     atom   65 type  2   force =     0.00000000    0.00000000    0.00000000
     atom   66 type  2   force =     0.00000000    0.00000000    0.00000000
     atom   67 type  2   force =     0.00000000    0.00000000    0.00000000
     atom   68 type  2   force =     0.00000000    0.00000000    0.00000000
     atom   69 type  2   force =     0.00000000    0.00000000    0.00000000
     atom   70 type  2   force =     0.00000000    0.00000000    0.00000000
     atom   71 type  2   force =     0.00000000    0.00000000    0.00000000
     atom   72 type  2   force =     0.00000000    0.00000000    0.00000000
     The SCF correction term to forces
     atom    1 type  1   force =    -0.00000795   -0.00000112   -0.00000139
     atom    2 type  1   force =    -0.00000698    0.00001084    0.00000433
     atom    3 type  1   force =    -0.00001109    0.00000758   -0.00000358
     atom    4 type  1   force =     0.00001036    0.00001222   -0.00000227
     atom    5 type  1   force =    -0.00000550    0.00000212    0.00000271
     atom    6 type  1   force =     0.00001162   -0.00000269   -0.00000246
     atom    7 type  1   force =    -0.00000770   -0.00001028    0.00000043
     atom    8 type  1   force =     0.00000671    0.00000584    0.00000342
     atom    9 type  1   force =    -0.00001118   -0.00000144   -0.00000086
     atom   10 type  1   force =    -0.00000019   -0.00001141   -0.00000066
     atom   11 type  1   force =     0.00000985    0.00001005   -0.00000059
     atom   12 type  1   force =    -0.00000036   -0.00000546   -0.00000085
     atom   13 type  1   force =    -0.00001072   -0.00000930    0.00000138
     atom   14 type  1   force =     0.00000962   -0.00001160    0.00000458
     atom   15 type  1   force =     0.00001041   -0.00001185    0.00000061
     atom   16 type  1   force =    -0.00000709   -0.00001059   -0.00000025
     atom   17 type  1   force =    -0.00000692    0.00001106   -0.00000167
     atom   18 type  1   force =    -0.00000550    0.00000323   -0.00000268
     atom   19 type  1   force =     0.00000171    0.00001021   -0.00000053
     atom   20 type  1   force =    -0.00001029   -0.00000652   -0.00000225
     atom   21 type  1   force =    -0.00000759   -0.00000295    0.00000274
     atom   22 type  1   force =    -0.00000784    0.00000999   -0.00000062
     atom   23 type  1   force =    -0.00000240   -0.00000799    0.00000018
     atom   24 type  1   force =     0.00000702   -0.00000223    0.00000323
     atom   25 type  1   force =     0.00000808   -0.00001257   -0.00000256
     atom   26 type  1   force =     0.00000123    0.00000877    0.00000565
     atom   27 type  1   force =    -0.00000180   -0.00000619    0.00000344
     atom   28 type  1   force =     0.00000648   -0.00000321    0.00000081
     atom   29 type  1   force =     0.00000256   -0.00001214   -0.00000130
     atom   30 type  1   force =    -0.00000747    0.00000673    0.00000046
     atom   31 type  1   force =     0.00000260   -0.00000342    0.00000204
     atom   32 type  1   force =     0.00000960    0.00001040    0.00000156
     atom   33 type  1   force =     0.00000642    0.00000728    0.00000056
     atom   34 type  1   force =    -0.00000261    0.00000310   -0.00000224
     atom   35 type  1   force =    -0.00000420   -0.00000573    0.00000022
     atom   36 type  1   force =    -0.00000546    0.00000695    0.00000108
     atom   37 type  1   force =     0.00001349    0.00000241   -0.00000228
     atom   38 type  1   force =    -0.00000015   -0.00000536   -0.00000510
     atom   39 type  1   force =    -0.00000335   -0.00000218    0.00000131
     atom   40 type  1   force =     0.00000449    0.00000376   -0.00000074
     atom   41 type  1   force =     0.00000776   -0.00001306    0.00000251
     atom   42 type  1   force =    -0.00000608   -0.00000660   -0.00000086
     atom   43 type  1   force =     0.00000239   -0.00000418    0.00000225
     atom   44 type  1   force =     0.00000945    0.00000625    0.00000196
     atom   45 type  1   force =     0.00001227   -0.00000876   -0.00000438
     atom   46 type  1   force =    -0.00000392    0.00000546   -0.00000102
     atom   47 type  1   force =    -0.00000473   -0.00000724    0.00000294
     atom   48 type  1   force =    -0.00000787    0.00000636    0.00000011
     atom   49 type  1   force =     0.00000364    0.00001230    0.00000021
     atom   50 type  1   force =     0.00000204   -0.00000427    0.00000271
     atom   51 type  1   force =    -0.00000648   -0.00000709    0.00000106
     atom   52 type  1   force =    -0.00000317    0.00000894    0.00000213
     atom   53 type  1   force =     0.00000131   -0.00000960   -0.00000092
     atom   54 type  1   force =     0.00000923   -0.00000701   -0.00000571
     atom   55 type  1   force =    -0.00001424    0.00000333   -0.00000046
     atom   56 type  1   force =     0.00001030   -0.00001228   -0.00000186
     atom   57 type  1   force =     0.00000082    0.00001367   -0.00000340
     atom   58 type  1   force =    -0.00000711    0.00000804    0.00000204
     atom   59 type  1   force =     0.00000612    0.00001410    0.00000403
     atom   60 type  1   force =     0.00000431    0.00001296    0.00000359
     atom   61 type  1   force =    -0.00000743   -0.00001038    0.00000005
     atom   62 type  1   force =     0.00000420   -0.00000934   -0.00000117
     atom   63 type  1   force =     0.00000837    0.00000493   -0.00000568
     atom   64 type  1   force =     0.00000888    0.00000635   -0.00000237
     atom   65 type  2   force =    -0.00000323   -0.00000217    0.00000069
     atom   66 type  2   force =    -0.00000111   -0.00000332    0.00000027
     atom   67 type  2   force =    -0.00000026   -0.00000071   -0.00000141
     atom   68 type  2   force =     0.00000233    0.00000192   -0.00000026
     atom   69 type  2   force =     0.00000103   -0.00000196   -0.00000066
     atom   70 type  2   force =     0.00000272    0.00000364   -0.00000099
     atom   71 type  2   force =     0.00000142    0.00000193   -0.00000114
     atom   72 type  2   force =    -0.00000030    0.00000080   -0.00000156

     Total force =     0.137201     Total SCF correction =     0.000091

     Computing stress (Cartesian axis) and pressure

          total   stress  (Ry/bohr**3)                   (kbar)     P=   -0.10
  -0.00008419  -0.00000815  -0.00004234        -12.38     -1.20     -6.23
  -0.00000815   0.00005464  -0.00005030         -1.20      8.04     -7.40
  -0.00004234  -0.00005030   0.00002743         -6.23     -7.40      4.04

     kinetic stress (kbar)   2188.94      2.69     -0.30
                                2.69   2215.37     -6.37
                               -0.30     -6.37   2214.92

     local   stress (kbar)  -1298.43    -66.90     34.38
                              -66.90  -1307.73     38.89
                               34.38     38.89  -1372.88

     nonloc. stress (kbar)   2420.18      4.52      1.35
                                4.52   2413.02     -2.18
                                1.35     -2.18   2417.54

     hartree stress (kbar)    238.74     18.33    -13.96
                               18.33    261.42    -13.17
                              -13.96    -13.17    275.97

     exc-cor stress (kbar)   -777.15     -0.02     -0.06
                               -0.02   -777.27     -0.16
                               -0.06     -0.16   -777.22

     corecor stress (kbar)      0.00      0.00      0.00
                                0.00      0.00      0.00
                                0.00      0.00      0.00

     ewald   stress (kbar)  -2784.67     40.18    -27.64
                               40.18  -2796.76    -24.41
                              -27.64    -24.41  -2754.29

     hubbard stress (kbar)      0.00      0.00      0.00
                                0.00      0.00      0.00
                                0.00      0.00      0.00

     london  stress (kbar)      0.00      0.00      0.00
                                0.00      0.00      0.00
                                0.00      0.00      0.00

     DFT-D3  stress (kbar)      0.00      0.00      0.00
                                0.00      0.00      0.00
                                0.00      0.00      0.00

     XDM     stress (kbar)      0.00      0.00      0.00
                                0.00      0.00      0.00
                                0.00      0.00      0.00

     dft-nl  stress (kbar)      0.00      0.00      0.00
                                0.00      0.00      0.00
                                0.00      0.00      0.00

     TS-vdW  stress (kbar)      0.00      0.00      0.00
                                0.00      0.00      0.00
                                0.00      0.00      0.00

     Writing output data file amorph_optimize4.save

     General routines

     Parallel routines

   This run was terminated on:   8:54: 5   7Nov2020

   JOB DONE.