     Program PWSCF v.6.2 (svn rev. 14038) starts on  7Nov2020 at  8:12:14

     R & G space division:  proc/nbgrp/npool/nimage =       8
     Waiting for input...
     Reading input from standard input
Warning: card &IONS ignored
Warning: card / ignored

     Current dimensions of program PWSCF are:
     Max number of different atomic species (ntypx) = 10
     Max number of k-points (npk) =  40000
     Max angular momentum in pseudopotentials (lmaxx) =  3

     Subspace diagonalization in iterative solution of the eigenvalue problem:
     a serial algorithm will be used

     bravais-lattice index     =            0
     lattice parameter (alat)  =      30.8403  a.u.
     unit-cell volume          =   29332.9180 (a.u.)^3
     number of atoms/cell      =          223
     number of atomic types    =            2
     number of electrons       =       865.00
     number of Kohn-Sham states=          520
     kinetic-energy cutoff     =      42.0000  Ry
     charge density cutoff     =     168.0000  Ry
     convergence threshold     =      1.0E-08
     mixing beta               =       0.3000
     number of iterations used =            8  plain     mixing
     Exchange-correlation      = SLA-PW-PBX-PBC ( 1  4  3  4 0 0)

     celldm(1)=  30.840288  celldm(2)=   0.000000  celldm(3)=   0.000000
     celldm(4)=   0.000000  celldm(5)=   0.000000  celldm(6)=   0.000000

     crystal axes: (cart. coord. in units of alat)
               a(1) = (   1.000000   0.000000   0.000000 )
               a(2) = (   0.000000   1.000000   0.000000 )
               a(3) = (   0.000000   0.000000   1.000000 )

     reciprocal axes: (cart. coord. in units 2 pi/alat)
               b(1) = (  1.000000  0.000000  0.000000 )
               b(2) = (  0.000000  1.000000  0.000000 )
               b(3) = (  0.000000  0.000000  1.000000 )

     PseudoPot. # 1 for Si read from file:
     ./Si.pbe-hgh.UPF
     MD5 check sum: 9a9f0f6e09139bfdb36b03ff6bc35900
     Pseudo is Norm-conserving, Zval =  4.0
     Generated in analytical, separable form
     Using radial grid of 1141 points,  3 beta functions with:
                l(1) =   0
                l(2) =   0
                l(3) =   1

     PseudoPot. # 2 for H  read from file:
     ./H.pbe-hgh.UPF
     MD5 check sum: 5f350582108a937bec95f27f5610ab08
     Pseudo is Norm-conserving, Zval =  1.0
     Generated in analytical, separable form
     Using radial grid of  929 points,  0 beta functions with:

     atomic species   valence    mass     pseudopotential
        Si             4.00    28.08000     Si( 1.00)
        H              1.00     1.00784     H ( 1.00)

     No symmetry found

                                    s                        frac. trans.

      isym =  1     identity

 cryst.   s( 1) = (     1          0          0      )
                  (     0          1          0      )
                  (     0          0          1      )

 cart.    s( 1) = (  1.0000000  0.0000000  0.0000000 )
                  (  0.0000000  1.0000000  0.0000000 )
                  (  0.0000000  0.0000000  1.0000000 )

   Cartesian axes

     site n.     atom                  positions (alat units)
         1           Si  tau(   1) = (   0.0819118   0.0835162   0.0889189  )
         2           Si  tau(   2) = (   0.1650510   0.1660870   0.0035852  )
         3           Si  tau(   3) = (   0.2493530   0.2506130   0.0848178  )
         4           Si  tau(   4) = (   0.1680050   0.0011473   0.1687180  )
         5           Si  tau(   5) = (   0.2504290   0.0846903   0.2519950  )
         6           Si  tau(   6) = (   0.9985490   0.1684030   0.1688040  )
         7           Si  tau(   7) = (   0.0829571   0.2511960   0.2520890  )
         8           Si  tau(   8) = (   0.0004963   0.0012413   0.3387990  )
         9           Si  tau(   9) = (   0.0841371   0.0844862   0.4206170  )
        10           Si  tau(  10) = (   0.1660350   0.1671190   0.3351460  )
        11           Si  tau(  11) = (   0.2496550   0.2502740   0.4183750  )
        12           Si  tau(  12) = (   0.1673810   0.0007646   0.5030570  )
        13           Si  tau(  13) = (   0.2502330   0.0843060   0.5860090  )
        14           Si  tau(  14) = (   0.9994850   0.1677800   0.5022130  )
        15           Si  tau(  15) = (   0.0831014   0.2505790   0.5854180  )
        16           Si  tau(  16) = (   0.9996700   0.0007382   0.6675610  )
        17           Si  tau(  17) = (   0.0831227   0.0824684   0.7521220  )
        18           Si  tau(  18) = (   0.1660060   0.1670260   0.6691040  )
        19           Si  tau(  19) = (   0.2490320   0.2506410   0.7520150  )
        20           Si  tau(  20) = (   0.1669410   0.9971620   0.8339930  )
        21           Si  tau(  21) = (   0.2477530   0.0828055   0.9185160  )
        22           Si  tau(  22) = (   0.9984990   0.1660480   0.8347050  )
        23           Si  tau(  23) = (   0.0820241   0.2489040   0.9188740  )
        24           Si  tau(  24) = (   0.9992210   0.3329480   0.0016694  )
        25           Si  tau(  25) = (   0.0824985   0.4164810   0.0848554  )
        26           Si  tau(  26) = (   0.1652690   0.5003300   0.0017449  )
        27           Si  tau(  27) = (   0.2458900   0.5832840   0.0877384  )
        28           Si  tau(  28) = (   0.1664660   0.3340810   0.1684870  )
        29           Si  tau(  29) = (   0.2497210   0.4171500   0.2520230  )
        30           Si  tau(  30) = (   0.9990790   0.4998300   0.1680260  )
        31           Si  tau(  31) = (   0.0815997   0.5836170   0.2514770  )
        32           Si  tau(  32) = (   0.9995180   0.3347860   0.3349710  )
        33           Si  tau(  33) = (   0.0832909   0.4174620   0.4182990  )
        34           Si  tau(  34) = (   0.1662520   0.5009600   0.3346780  )
        35           Si  tau(  35) = (   0.2496910   0.5841950   0.4176590  )
        36           Si  tau(  36) = (   0.1664010   0.3337640   0.5017010  )
        37           Si  tau(  37) = (   0.2494570   0.4174010   0.5850160  )
        38           Si  tau(  38) = (   0.9997150   0.4998160   0.5020380  )
        39           Si  tau(  39) = (   0.0829478   0.5837460   0.5843990  )
        40           Si  tau(  40) = (   0.9995470   0.3338120   0.6682770  )
        41           Si  tau(  41) = (   0.0826415   0.4167030   0.7517240  )
        42           Si  tau(  42) = (   0.1657000   0.5002110   0.6681620  )
        43           Si  tau(  43) = (   0.2485230   0.5842690   0.7511950  )
        44           Si  tau(  44) = (   0.1653990   0.3332620   0.8356700  )
        45           Si  tau(  45) = (   0.2489460   0.4177430   0.9180510  )
        46           Si  tau(  46) = (   0.9992880   0.5000730   0.8347300  )
        47           Si  tau(  47) = (   0.0822758   0.5836140   0.9182160  )
        48           Si  tau(  48) = (   0.9975300   0.6666260   0.0002831  )
        49           Si  tau(  49) = (   0.0801059   0.7517210   0.0818254  )
        50           Si  tau(  50) = (   0.1659300   0.8338650   0.0007974  )
        51           Si  tau(  51) = (   0.2493960   0.9168120   0.0843636  )
        52           Si  tau(  52) = (   0.1624420   0.6692300   0.1681810  )
        53           Si  tau(  53) = (   0.2477720   0.7516550   0.2512280  )
        54           Si  tau(  54) = (   0.0017689   0.8313710   0.1761300  )
        55           Si  tau(  55) = (   0.0840738   0.9215300   0.2535760  )
        56           Si  tau(  56) = (   0.9980180   0.6651570   0.3355660  )
        57           Si  tau(  57) = (   0.0817122   0.7507570   0.4163890  )
        58           Si  tau(  58) = (   0.1659560   0.8358410   0.3353650  )
        59           Si  tau(  59) = (   0.2501580   0.9178870   0.4188220  )
        60           Si  tau(  60) = (   0.1648790   0.6671420   0.4995630  )
[...]
       209           Si  tau( 209) = (   0.8332800   0.8344020   0.6669400  )
       210           Si  tau( 210) = (   0.9162720   0.9175700   0.7504950  )
       211           Si  tau( 211) = (   0.8308160   0.6655020   0.8328350  )
       212           Si  tau( 212) = (   0.9153240   0.7480910   0.9150170  )
       213           Si  tau( 213) = (   0.6664240   0.8345380   0.8284280  )
       214           Si  tau( 214) = (   0.7472930   0.9181720   0.9143460  )
       215           H   tau( 215) = (   0.6522860   0.8153840   0.9825040  )
       216           H   tau( 216) = (   0.0590607   0.0565110   0.9413640  )
       217           H   tau( 217) = (   0.4717390   0.6869340   0.7741190  )
       218           H   tau( 218) = (   0.0566008   0.7754060   0.2333300  )
       219           H   tau( 219) = (   0.5618360   0.6432350   0.8151840  )
       220           H   tau( 220) = (   0.8002870   0.0381551   0.1311780  )
       221           H   tau( 221) = (   0.8655660   0.0351443   0.2154630  )
       222           H   tau( 222) = (   0.4636510   0.6453130   0.8857000  )
       223           H   tau( 223) = (   0.8754140   0.8784970   0.0584556  )

   Crystallographic axes

     site n.     atom                  positions (cryst. coord.)
         1           Si  tau(   1) = (  0.0819118  0.0835162  0.0889189  )
         2           Si  tau(   2) = (  0.1650510  0.1660870  0.0035852  )
         3           Si  tau(   3) = (  0.2493530  0.2506130  0.0848178  )
         4           Si  tau(   4) = (  0.1680050  0.0011473  0.1687180  )
         5           Si  tau(   5) = (  0.2504290  0.0846903  0.2519950  )
         6           Si  tau(   6) = (  0.9985490  0.1684030  0.1688040  )
         7           Si  tau(   7) = (  0.0829571  0.2511960  0.2520890  )
         8           Si  tau(   8) = (  0.0004963  0.0012413  0.3387990  )
         9           Si  tau(   9) = (  0.0841371  0.0844862  0.4206170  )
        10           Si  tau(  10) = (  0.1660350  0.1671190  0.3351460  )
        11           Si  tau(  11) = (  0.2496550  0.2502740  0.4183750  )
        12           Si  tau(  12) = (  0.1673810  0.0007646  0.5030570  )
        13           Si  tau(  13) = (  0.2502330  0.0843060  0.5860090  )
        14           Si  tau(  14) = (  0.9994850  0.1677800  0.5022130  )
        15           Si  tau(  15) = (  0.0831014  0.2505790  0.5854180  )
        16           Si  tau(  16) = (  0.9996700  0.0007382  0.6675610  )
        17           Si  tau(  17) = (  0.0831227  0.0824684  0.7521220  )
        18           Si  tau(  18) = (  0.1660060  0.1670260  0.6691040  )
        19           Si  tau(  19) = (  0.2490320  0.2506410  0.7520150  )
        20           Si  tau(  20) = (  0.1669410  0.9971620  0.8339930  )
        21           Si  tau(  21) = (  0.2477530  0.0828055  0.9185160  )
        22           Si  tau(  22) = (  0.9984990  0.1660480  0.8347050  )
        23           Si  tau(  23) = (  0.0820241  0.2489040  0.9188740  )
        24           Si  tau(  24) = (  0.9992210  0.3329480  0.0016694  )
        25           Si  tau(  25) = (  0.0824985  0.4164810  0.0848554  )
        26           Si  tau(  26) = (  0.1652690  0.5003300  0.0017449  )
        27           Si  tau(  27) = (  0.2458900  0.5832840  0.0877384  )
[...]
     atom   44 type  1   force =     0.00000000    0.00000000    0.00000000
     atom   45 type  1   force =     0.00000000    0.00000000    0.00000000
     atom   46 type  1   force =     0.00000000    0.00000000    0.00000000
     atom   47 type  1   force =     0.00000000    0.00000000    0.00000000
     atom   48 type  1   force =     0.00000000    0.00000000    0.00000000
     atom   49 type  1   force =     0.00000000    0.00000000    0.00000000
     atom   50 type  1   force =     0.00000000    0.00000000    0.00000000
     atom   51 type  1   force =     0.00000000    0.00000000    0.00000000
     atom   52 type  1   force =     0.00000000    0.00000000    0.00000000
     atom   53 type  1   force =     0.00000000    0.00000000    0.00000000
     atom   54 type  1   force =     0.00000000    0.00000000    0.00000000
     atom   55 type  1   force =     0.00000000    0.00000000    0.00000000
     atom   56 type  1   force =     0.00000000    0.00000000    0.00000000
     atom   57 type  1   force =     0.00000000    0.00000000    0.00000000
     atom   58 type  1   force =     0.00000000    0.00000000    0.00000000
     atom   59 type  1   force =     0.00000000    0.00000000    0.00000000
     atom   60 type  1   force =     0.00000000    0.00000000    0.00000000
[...]
     atom  209 type  1   force =     0.00000000    0.00000000    0.00000000
     atom  210 type  1   force =     0.00000000    0.00000000    0.00000000
     atom  211 type  1   force =     0.00000000    0.00000000    0.00000000
     atom  212 type  1   force =     0.00000000    0.00000000    0.00000000
     atom  213 type  1   force =     0.00000000    0.00000000    0.00000000
     atom  214 type  1   force =     0.00000000    0.00000000    0.00000000
     atom  215 type  2   force =     0.00000000    0.00000000    0.00000000
     atom  216 type  2   force =     0.00000000    0.00000000    0.00000000
     atom  217 type  2   force =     0.00000000    0.00000000    0.00000000
     atom  218 type  2   force =     0.00000000    0.00000000    0.00000000
     atom  219 type  2   force =     0.00000000    0.00000000    0.00000000
     atom  220 type  2   force =     0.00000000    0.00000000    0.00000000
     atom  221 type  2   force =     0.00000000    0.00000000    0.00000000
     atom  222 type  2   force =     0.00000000    0.00000000    0.00000000
     atom  223 type  2   force =     0.00000000    0.00000000    0.00000000
     The Hubbard contrib.    to forces
     atom    1 type  1   force =     0.00000000    0.00000000    0.00000000
     atom    2 type  1   force =     0.00000000    0.00000000    0.00000000
     atom    3 type  1   force =     0.00000000    0.00000000    0.00000000
     atom    4 type  1   force =     0.00000000    0.00000000    0.00000000
     atom    5 type  1   force =     0.00000000    0.00000000    0.00000000
     atom    6 type  1   force =     0.00000000    0.00000000    0.00000000
     atom    7 type  1   force =     0.00000000    0.00000000    0.00000000
     atom    8 type  1   force =     0.00000000    0.00000000    0.00000000
     atom    9 type  1   force =     0.00000000    0.00000000    0.00000000
     atom   10 type  1   force =     0.00000000    0.00000000    0.00000000
     atom   11 type  1   force =     0.00000000    0.00000000    0.00000000
     atom   12 type  1   force =     0.00000000    0.00000000    0.00000000
     atom   13 type  1   force =     0.00000000    0.00000000    0.00000000
     atom   14 type  1   force =     0.00000000    0.00000000    0.00000000
     atom   15 type  1   force =     0.00000000    0.00000000    0.00000000
     atom   16 type  1   force =     0.00000000    0.00000000    0.00000000
     atom   17 type  1   force =     0.00000000    0.00000000    0.00000000
     atom   18 type  1   force =     0.00000000    0.00000000    0.00000000
     atom   19 type  1   force =     0.00000000    0.00000000    0.00000000
     atom   20 type  1   force =     0.00000000    0.00000000    0.00000000
     atom   21 type  1   force =     0.00000000    0.00000000    0.00000000
     atom   22 type  1   force =     0.00000000    0.00000000    0.00000000
     atom   23 type  1   force =     0.00000000    0.00000000    0.00000000
     atom   24 type  1   force =     0.00000000    0.00000000    0.00000000
     atom   25 type  1   force =     0.00000000    0.00000000    0.00000000
     atom   26 type  1   force =     0.00000000    0.00000000    0.00000000
     atom   27 type  1   force =     0.00000000    0.00000000    0.00000000
     atom   28 type  1   force =     0.00000000    0.00000000    0.00000000
     atom   29 type  1   force =     0.00000000    0.00000000    0.00000000
     atom   30 type  1   force =     0.00000000    0.00000000    0.00000000
     atom   31 type  1   force =     0.00000000    0.00000000    0.00000000
     atom   32 type  1   force =     0.00000000    0.00000000    0.00000000
     atom   33 type  1   force =     0.00000000    0.00000000    0.00000000
     atom   34 type  1   force =     0.00000000    0.00000000    0.00000000
     atom   35 type  1   force =     0.00000000    0.00000000    0.00000000
     atom   36 type  1   force =     0.00000000    0.00000000    0.00000000
     atom   37 type  1   force =     0.00000000    0.00000000    0.00000000
     atom   38 type  1   force =     0.00000000    0.00000000    0.00000000
     atom   39 type  1   force =     0.00000000    0.00000000    0.00000000
     atom   40 type  1   force =     0.00000000    0.00000000    0.00000000
     atom   41 type  1   force =     0.00000000    0.00000000    0.00000000
     atom   42 type  1   force =     0.00000000    0.00000000    0.00000000
     atom   43 type  1   force =     0.00000000    0.00000000    0.00000000
     atom   44 type  1   force =     0.00000000    0.00000000    0.00000000
     atom   45 type  1   force =     0.00000000    0.00000000    0.00000000
     atom   46 type  1   force =     0.00000000    0.00000000    0.00000000
     atom   47 type  1   force =     0.00000000    0.00000000    0.00000000
     atom   48 type  1   force =     0.00000000    0.00000000    0.00000000
     atom   49 type  1   force =     0.00000000    0.00000000    0.00000000
     atom   50 type  1   force =     0.00000000    0.00000000    0.00000000
     atom   51 type  1   force =     0.00000000    0.00000000    0.00000000
     atom   52 type  1   force =     0.00000000    0.00000000    0.00000000
     atom   53 type  1   force =     0.00000000    0.00000000    0.00000000
     atom   54 type  1   force =     0.00000000    0.00000000    0.00000000
     atom   55 type  1   force =     0.00000000    0.00000000    0.00000000
     atom   56 type  1   force =     0.00000000    0.00000000    0.00000000
     atom   57 type  1   force =     0.00000000    0.00000000    0.00000000
     atom   58 type  1   force =     0.00000000    0.00000000    0.00000000
     atom   59 type  1   force =     0.00000000    0.00000000    0.00000000
     atom   60 type  1   force =     0.00000000    0.00000000    0.00000000
[...]
     atom  209 type  1   force =     0.00000000    0.00000000    0.00000000
     atom  210 type  1   force =     0.00000000    0.00000000    0.00000000
     atom  211 type  1   force =     0.00000000    0.00000000    0.00000000
     atom  212 type  1   force =     0.00000000    0.00000000    0.00000000
     atom  213 type  1   force =     0.00000000    0.00000000    0.00000000
     atom  214 type  1   force =     0.00000000    0.00000000    0.00000000
     atom  215 type  2   force =     0.00000000    0.00000000    0.00000000
     atom  216 type  2   force =     0.00000000    0.00000000    0.00000000
     atom  217 type  2   force =     0.00000000    0.00000000    0.00000000
     atom  218 type  2   force =     0.00000000    0.00000000    0.00000000
     atom  219 type  2   force =     0.00000000    0.00000000    0.00000000
     atom  220 type  2   force =     0.00000000    0.00000000    0.00000000
     atom  221 type  2   force =     0.00000000    0.00000000    0.00000000
     atom  222 type  2   force =     0.00000000    0.00000000    0.00000000
     atom  223 type  2   force =     0.00000000    0.00000000    0.00000000
     The SCF correction term to forces
     atom    1 type  1   force =     0.00000049    0.00000294    0.00000021
     atom    2 type  1   force =    -0.00000388   -0.00000232   -0.00000011
     atom    3 type  1   force =    -0.00000770   -0.00000651   -0.00000175
     atom    4 type  1   force =    -0.00000230   -0.00000092    0.00000192
     atom    5 type  1   force =    -0.00000189   -0.00000398   -0.00000076
     atom    6 type  1   force =     0.00000212    0.00000299    0.00000020
     atom    7 type  1   force =    -0.00000583   -0.00000209   -0.00000349
     atom    8 type  1   force =    -0.00000089   -0.00000545    0.00000089
     atom    9 type  1   force =    -0.00000410   -0.00000565   -0.00000372
     atom   10 type  1   force =    -0.00000302   -0.00000400   -0.00000278
     atom   11 type  1   force =    -0.00000068   -0.00000452   -0.00000188
     atom   12 type  1   force =    -0.00000488   -0.00000245   -0.00000423
     atom   13 type  1   force =    -0.00000104   -0.00000127   -0.00000145
     atom   14 type  1   force =    -0.00000238   -0.00000582   -0.00000223
     atom   15 type  1   force =    -0.00000137   -0.00000523    0.00000091
     atom   16 type  1   force =    -0.00000592   -0.00000124   -0.00000009
     atom   17 type  1   force =    -0.00000408    0.00000056    0.00000590
     atom   18 type  1   force =    -0.00000219   -0.00000064    0.00000225
     atom   19 type  1   force =    -0.00000121   -0.00000248    0.00000206
     atom   20 type  1   force =    -0.00000414    0.00000511    0.00000400
     atom   21 type  1   force =    -0.00000517   -0.00000035    0.00000301
     atom   22 type  1   force =    -0.00000280   -0.00000338    0.00000366
     atom   23 type  1   force =    -0.00000298   -0.00000646    0.00000300
     atom   24 type  1   force =    -0.00000409   -0.00000322    0.00000355
     atom   25 type  1   force =    -0.00000786   -0.00000338    0.00000305
     atom   26 type  1   force =    -0.00000645   -0.00000417    0.00000303
     atom   27 type  1   force =    -0.00000153    0.00000587    0.00000390
     atom   28 type  1   force =    -0.00000841   -0.00000294    0.00000086
     atom   29 type  1   force =    -0.00000757   -0.00000028    0.00000035
     atom   30 type  1   force =    -0.00000882    0.00000143    0.00000468
     atom   31 type  1   force =    -0.00000951    0.00000760    0.00000331
     atom   32 type  1   force =    -0.00000365    0.00000127   -0.00000642
     atom   33 type  1   force =    -0.00000526    0.00000470   -0.00000718
     atom   34 type  1   force =    -0.00000828    0.00000424    0.00000002
     atom   35 type  1   force =    -0.00000627    0.00000423   -0.00000169
     atom   36 type  1   force =    -0.00000085   -0.00000164   -0.00000097
     atom   37 type  1   force =     0.00000053   -0.00000136    0.00000020
     atom   38 type  1   force =    -0.00000198    0.00000614   -0.00000967
     atom   39 type  1   force =    -0.00000241    0.00000535   -0.00000869
     atom   40 type  1   force =    -0.00000115   -0.00000609    0.00000219
     atom   41 type  1   force =     0.00000051   -0.00000617    0.00000278
     atom   42 type  1   force =     0.00000132   -0.00000062   -0.00000315
     atom   43 type  1   force =     0.00000191   -0.00000099   -0.00000341
     atom   44 type  1   force =    -0.00000205   -0.00000597    0.00000144
     atom   45 type  1   force =    -0.00000114   -0.00000489   -0.00000104
     atom   46 type  1   force =    -0.00000309   -0.00000321    0.00000625
     atom   47 type  1   force =    -0.00000550   -0.00000224    0.00000401
     atom   48 type  1   force =    -0.00000396   -0.00000115    0.00001088
     atom   49 type  1   force =    -0.00000356    0.00000032    0.00001216
     atom   50 type  1   force =    -0.00000125    0.00000449    0.00000477
     atom   51 type  1   force =     0.00000194    0.00000332    0.00000427
     atom   52 type  1   force =    -0.00000772    0.00000559    0.00000844
     atom   53 type  1   force =    -0.00000670    0.00000496    0.00000227
     atom   54 type  1   force =     0.00000059   -0.00000682    0.00001551
     atom   55 type  1   force =    -0.00000283   -0.00000585    0.00000282
     atom   56 type  1   force =    -0.00000919    0.00000806   -0.00000568
     atom   57 type  1   force =    -0.00000706    0.00000323   -0.00000666
     atom   58 type  1   force =    -0.00000777   -0.00000136   -0.00000189
     atom   59 type  1   force =    -0.00000671   -0.00000219   -0.00000539
     atom   60 type  1   force =    -0.00000591    0.00000406   -0.00000693
[...]
     atom  209 type  1   force =     0.00000140    0.00000500   -0.00000720
     atom  210 type  1   force =    -0.00000102    0.00000446   -0.00000583
     atom  211 type  1   force =    -0.00000245    0.00000278    0.00000464
     atom  212 type  1   force =    -0.00001003    0.00000015    0.00000412
     atom  213 type  1   force =     0.00000172    0.00000188    0.00000179
     atom  214 type  1   force =     0.00000066    0.00000014   -0.00000024
     atom  215 type  2   force =    -0.00000122   -0.00000209    0.00000006
     atom  216 type  2   force =    -0.00000089    0.00000088    0.00000073
     atom  217 type  2   force =     0.00000207   -0.00000031    0.00000122
     atom  218 type  2   force =    -0.00000160   -0.00000016    0.00000152
     atom  219 type  2   force =     0.00000113    0.00000048    0.00000148
     atom  220 type  2   force =     0.00000027    0.00000103    0.00000211
     atom  221 type  2   force =    -0.00000068    0.00000045    0.00000176
     atom  222 type  2   force =     0.00000220    0.00000094    0.00000057
     atom  223 type  2   force =    -0.00000150   -0.00000241    0.00000227

     Total force =     0.101883     Total SCF correction =     0.000110

     Computing stress (Cartesian axis) and pressure

          total   stress  (Ry/bohr**3)                   (kbar)     P=   11.99
   0.00007650   0.00000359   0.00001169         11.25      0.53      1.72
   0.00000359   0.00008139  -0.00000733          0.53     11.97     -1.08
   0.00001169  -0.00000733   0.00008664          1.72     -1.08     12.74

     kinetic stress (kbar)   2272.76      0.70      0.11
                                0.70   2272.24     -2.64
                                0.11     -2.64   2273.44

     local   stress (kbar)  -1221.90     14.27      0.86
                               14.27  -1223.41     -7.95
                                0.86     -7.95  -1212.45

     nonloc. stress (kbar)   2562.48     -0.45     -0.11
                               -0.45   2561.43     -0.46
                               -0.11     -0.46   2561.41

     hartree stress (kbar)    204.70     -3.81     -0.12
                               -3.81    206.04      1.87
                               -0.12      1.87    202.85

     exc-cor stress (kbar)   -803.66     -0.07     -0.01
                               -0.07   -803.63      0.06
                               -0.01      0.06   -803.67

     corecor stress (kbar)      0.00      0.00      0.00
                                0.00      0.00      0.00
                                0.00      0.00      0.00

     ewald   stress (kbar)  -3003.12    -10.11      0.98
                              -10.11  -3000.70      8.06
                                0.98      8.06  -3008.84

     hubbard stress (kbar)      0.00      0.00      0.00
                                0.00      0.00      0.00
                                0.00      0.00      0.00

     london  stress (kbar)      0.00      0.00      0.00
                                0.00      0.00      0.00
                                0.00      0.00      0.00

     DFT-D3  stress (kbar)      0.00      0.00      0.00
                                0.00      0.00      0.00
                                0.00      0.00      0.00

     XDM     stress (kbar)      0.00      0.00      0.00
                                0.00      0.00      0.00
                                0.00      0.00      0.00

     dft-nl  stress (kbar)      0.00      0.00      0.00
                                0.00      0.00      0.00
                                0.00      0.00      0.00

     TS-vdW  stress (kbar)      0.00      0.00      0.00
                                0.00      0.00      0.00
                                0.00      0.00      0.00

     Writing output data file divacancy_optimize2.save

     General routines

     Parallel routines

   This run was terminated on:  11:10:11   7Nov2020

   JOB DONE.