     Program PWSCF v.6.2 (svn rev. 14038) starts on  7Nov2020 at  8:20:25

     R & G space division:  proc/nbgrp/npool/nimage =       8
     Waiting for input...
     Reading input from standard input
Warning: card &IONS ignored
Warning: card / ignored

     Current dimensions of program PWSCF are:
     Max number of different atomic species (ntypx) = 10
     Max number of k-points (npk) =  40000
     Max angular momentum in pseudopotentials (lmaxx) =  3

     Subspace diagonalization in iterative solution of the eigenvalue problem:
     a serial algorithm will be used

     bravais-lattice index     =            0
     lattice parameter (alat)  =      30.8403  a.u.
     unit-cell volume          =   29332.9180 (a.u.)^3
     number of atoms/cell      =          227
     number of atomic types    =            2
     number of electrons       =       869.00
     number of Kohn-Sham states=          522
     kinetic-energy cutoff     =      42.0000  Ry
     charge density cutoff     =     168.0000  Ry
     convergence threshold     =      1.0E-08
     mixing beta               =       0.3000
     number of iterations used =            8  plain     mixing
     Exchange-correlation      = SLA-PW-PBX-PBC ( 1  4  3  4 0 0)

     celldm(1)=  30.840288  celldm(2)=   0.000000  celldm(3)=   0.000000
     celldm(4)=   0.000000  celldm(5)=   0.000000  celldm(6)=   0.000000

     crystal axes: (cart. coord. in units of alat)
               a(1) = (   1.000000   0.000000   0.000000 )
               a(2) = (   0.000000   1.000000   0.000000 )
               a(3) = (   0.000000   0.000000   1.000000 )

     reciprocal axes: (cart. coord. in units 2 pi/alat)
               b(1) = (  1.000000  0.000000  0.000000 )
               b(2) = (  0.000000  1.000000  0.000000 )
               b(3) = (  0.000000  0.000000  1.000000 )

     PseudoPot. # 1 for Si read from file:
     ./Si.pbe-hgh.UPF
     MD5 check sum: 9a9f0f6e09139bfdb36b03ff6bc35900
     Pseudo is Norm-conserving, Zval =  4.0
     Generated in analytical, separable form
     Using radial grid of 1141 points,  3 beta functions with:
                l(1) =   0
                l(2) =   0
                l(3) =   1

     PseudoPot. # 2 for H  read from file:
     ./H.pbe-hgh.UPF
     MD5 check sum: 5f350582108a937bec95f27f5610ab08
     Pseudo is Norm-conserving, Zval =  1.0
     Generated in analytical, separable form
     Using radial grid of  929 points,  0 beta functions with:

     atomic species   valence    mass     pseudopotential
        Si             4.00    28.08000     Si( 1.00)
        H              1.00     1.00784     H ( 1.00)

     No symmetry found

                                    s                        frac. trans.

      isym =  1     identity

 cryst.   s( 1) = (     1          0          0      )
                  (     0          1          0      )
                  (     0          0          1      )

 cart.    s( 1) = (  1.0000000  0.0000000  0.0000000 )
                  (  0.0000000  1.0000000  0.0000000 )
                  (  0.0000000  0.0000000  1.0000000 )

   Cartesian axes

     site n.     atom                  positions (alat units)
         1           Si  tau(   1) = (   0.0846740   0.0868622   0.0900781  )
         2           Si  tau(   2) = (   0.1671020   0.1683080   0.0041448  )
         3           Si  tau(   3) = (   0.2511620   0.2514570   0.0859148  )
         4           Si  tau(   4) = (   0.1686230   0.0007612   0.1686190  )
         5           Si  tau(   5) = (   0.2505820   0.0841001   0.2521080  )
         6           Si  tau(   6) = (   0.9982380   0.1688050   0.1701500  )
         7           Si  tau(   7) = (   0.0831073   0.2501880   0.2531180  )
         8           Si  tau(   8) = (   0.9980430   0.0024568   0.3362570  )
         9           Si  tau(   9) = (   0.0829565   0.0843869   0.4186200  )
        10           Si  tau(  10) = (   0.1664810   0.1666660   0.3352750  )
        11           Si  tau(  11) = (   0.2498660   0.2503100   0.4181040  )
        12           Si  tau(  12) = (   0.1668110   0.0013685   0.5009590  )
        13           Si  tau(  13) = (   0.2491200   0.0845783   0.5848200  )
        14           Si  tau(  14) = (   0.9996240   0.1671800   0.5019320  )
        15           Si  tau(  15) = (   0.0834553   0.2505780   0.5840080  )
        16           Si  tau(  16) = (   0.9994600   0.0002477   0.6682450  )
        17           Si  tau(  17) = (   0.0813740   0.0847330   0.7515630  )
        18           Si  tau(  18) = (   0.1655500   0.1673960   0.6684110  )
        19           Si  tau(  19) = (   0.2486300   0.2498190   0.7525230  )
        20           Si  tau(  20) = (   0.1670600   0.0016806   0.8326740  )
        21           Si  tau(  21) = (   0.2488370   0.0839598   0.9193760  )
        22           Si  tau(  22) = (   0.9968100   0.1683670   0.8338620  )
        23           Si  tau(  23) = (   0.0816684   0.2482100   0.9192700  )
        24           Si  tau(  24) = (   0.9996890   0.3329420   0.0018645  )
        25           Si  tau(  25) = (   0.0818897   0.4135560   0.0881062  )
        26           Si  tau(  26) = (   0.1755620   0.4897310   0.0121667  )
        27           Si  tau(  27) = (   0.2522430   0.5827010   0.0881741  )
        28           Si  tau(  28) = (   0.1671720   0.3324690   0.1703780  )
        29           Si  tau(  29) = (   0.2495060   0.4173350   0.2525540  )
        30           Si  tau(  30) = (   0.0002521   0.4996610   0.1692210  )
        31           Si  tau(  31) = (   0.0824250   0.5849860   0.2510720  )
        32           Si  tau(  32) = (   0.9995150   0.3335300   0.3356510  )
        33           Si  tau(  33) = (   0.0835599   0.4169020   0.4175820  )
        34           Si  tau(  34) = (   0.1657550   0.5014210   0.3344150  )
        35           Si  tau(  35) = (   0.2489920   0.5846130   0.4174300  )
        36           Si  tau(  36) = (   0.1669180   0.3340060   0.5011510  )
        37           Si  tau(  37) = (   0.2498510   0.4173880   0.5848530  )
        38           Si  tau(  38) = (   0.0001985   0.4993000   0.5009150  )
        39           Si  tau(  39) = (   0.0832778   0.5832840   0.5828000  )
        40           Si  tau(  40) = (   0.0001844   0.3341590   0.6662850  )
        41           Si  tau(  41) = (   0.0843997   0.4157350   0.7499020  )
        42           Si  tau(  42) = (   0.1665590   0.5008860   0.6671840  )
        43           Si  tau(  43) = (   0.2526030   0.5824560   0.7499290  )
        44           Si  tau(  44) = (   0.1644830   0.3321290   0.8361260  )
        45           Si  tau(  45) = (   0.2503350   0.4132330   0.9181430  )
        46           Si  tau(  46) = (   0.9948440   0.4952030   0.8291580  )
        47           Si  tau(  47) = (   0.0589774   0.6067130   0.8934130  )
        48           Si  tau(  48) = (   0.9933070   0.6708690   0.0033935  )
        49           Si  tau(  49) = (   0.0844699   0.7510030   0.0806742  )
        50           Si  tau(  50) = (   0.1693850   0.8346070   0.9994080  )
        51           Si  tau(  51) = (   0.2512120   0.9169660   0.0850396  )
        52           Si  tau(  52) = (   0.1659180   0.6669060   0.1663090  )
        53           Si  tau(  53) = (   0.2481950   0.7510880   0.2510470  )
        54           Si  tau(  54) = (   0.0160612   0.8184480   0.1855060  )
        55           Si  tau(  55) = (   0.0845144   0.9223190   0.2544300  )
        56           Si  tau(  56) = (   0.9976210   0.6667220   0.3347070  )
        57           Si  tau(  57) = (   0.0816075   0.7516720   0.4158680  )
        58           Si  tau(  58) = (   0.1669180   0.8361680   0.3354440  )
        59           Si  tau(  59) = (   0.2508870   0.9176940   0.4192480  )
        60           Si  tau(  60) = (   0.1648180   0.6683430   0.4994540  )
[...]
       213           Si  tau( 213) = (   0.6669710   0.8350630   0.8300240  )
       214           Si  tau( 214) = (   0.7475860   0.9192940   0.9160830  )
       215           H   tau( 215) = (   0.5658780   0.6457620   0.8117240  )
       216           H   tau( 216) = (   0.4615970   0.6326480   0.8704470  )
       217           H   tau( 217) = (   0.8906000   0.8683550   0.0428467  )
       218           H   tau( 218) = (   0.1178950   0.5456450   0.9550130  )
       219           H   tau( 219) = (   0.8867960   0.9565100   0.1132010  )
       220           H   tau( 220) = (   0.0025771   0.6599030   0.8387660  )
       221           H   tau( 221) = (   0.6448420   0.3559500   0.5250080  )
       222           H   tau( 222) = (   0.4626790   0.7090980   0.8009030  )
       223           H   tau( 223) = (   0.4212320   0.5705350   0.7431690  )
       224           H   tau( 224) = (   0.0710185   0.0745925   0.9300970  )
       225           H   tau( 225) = (   0.6523220   0.8181680   0.9876280  )
       226           H   tau( 226) = (   0.0713844   0.7641140   0.2383440  )
       227           H   tau( 227) = (   0.0618216   0.7697790   0.9030830  )

   Crystallographic axes

     site n.     atom                  positions (cryst. coord.)
         1           Si  tau(   1) = (  0.0846740  0.0868622  0.0900781  )
         2           Si  tau(   2) = (  0.1671020  0.1683080  0.0041448  )
         3           Si  tau(   3) = (  0.2511620  0.2514570  0.0859148  )
         4           Si  tau(   4) = (  0.1686230  0.0007612  0.1686190  )
         5           Si  tau(   5) = (  0.2505820  0.0841001  0.2521080  )
         6           Si  tau(   6) = (  0.9982380  0.1688050  0.1701500  )
         7           Si  tau(   7) = (  0.0831073  0.2501880  0.2531180  )
         8           Si  tau(   8) = (  0.9980430  0.0024568  0.3362570  )
         9           Si  tau(   9) = (  0.0829565  0.0843869  0.4186200  )
        10           Si  tau(  10) = (  0.1664810  0.1666660  0.3352750  )
        11           Si  tau(  11) = (  0.2498660  0.2503100  0.4181040  )
        12           Si  tau(  12) = (  0.1668110  0.0013685  0.5009590  )
        13           Si  tau(  13) = (  0.2491200  0.0845783  0.5848200  )
        14           Si  tau(  14) = (  0.9996240  0.1671800  0.5019320  )
        15           Si  tau(  15) = (  0.0834553  0.2505780  0.5840080  )
        16           Si  tau(  16) = (  0.9994600  0.0002477  0.6682450  )
        17           Si  tau(  17) = (  0.0813740  0.0847330  0.7515630  )
        18           Si  tau(  18) = (  0.1655500  0.1673960  0.6684110  )
        19           Si  tau(  19) = (  0.2486300  0.2498190  0.7525230  )
        20           Si  tau(  20) = (  0.1670600  0.0016806  0.8326740  )
        21           Si  tau(  21) = (  0.2488370  0.0839598  0.9193760  )
        22           Si  tau(  22) = (  0.9968100  0.1683670  0.8338620  )
        23           Si  tau(  23) = (  0.0816684  0.2482100  0.9192700  )
        24           Si  tau(  24) = (  0.9996890  0.3329420  0.0018645  )
        25           Si  tau(  25) = (  0.0818897  0.4135560  0.0881062  )
        26           Si  tau(  26) = (  0.1755620  0.4897310  0.0121667  )
        27           Si  tau(  27) = (  0.2522430  0.5827010  0.0881741  )
[...]
     atom   44 type  1   force =     0.00000000    0.00000000    0.00000000
     atom   45 type  1   force =     0.00000000    0.00000000    0.00000000
     atom   46 type  1   force =     0.00000000    0.00000000    0.00000000
     atom   47 type  1   force =     0.00000000    0.00000000    0.00000000
     atom   48 type  1   force =     0.00000000    0.00000000    0.00000000
     atom   49 type  1   force =     0.00000000    0.00000000    0.00000000
     atom   50 type  1   force =     0.00000000    0.00000000    0.00000000
     atom   51 type  1   force =     0.00000000    0.00000000    0.00000000
     atom   52 type  1   force =     0.00000000    0.00000000    0.00000000
     atom   53 type  1   force =     0.00000000    0.00000000    0.00000000
     atom   54 type  1   force =     0.00000000    0.00000000    0.00000000
     atom   55 type  1   force =     0.00000000    0.00000000    0.00000000
     atom   56 type  1   force =     0.00000000    0.00000000    0.00000000
     atom   57 type  1   force =     0.00000000    0.00000000    0.00000000
     atom   58 type  1   force =     0.00000000    0.00000000    0.00000000
     atom   59 type  1   force =     0.00000000    0.00000000    0.00000000
     atom   60 type  1   force =     0.00000000    0.00000000    0.00000000
[...]
     atom  213 type  1   force =     0.00000000    0.00000000    0.00000000
     atom  214 type  1   force =     0.00000000    0.00000000    0.00000000
     atom  215 type  2   force =     0.00000000    0.00000000    0.00000000
     atom  216 type  2   force =     0.00000000    0.00000000    0.00000000
     atom  217 type  2   force =     0.00000000    0.00000000    0.00000000
     atom  218 type  2   force =     0.00000000    0.00000000    0.00000000
     atom  219 type  2   force =     0.00000000    0.00000000    0.00000000
     atom  220 type  2   force =     0.00000000    0.00000000    0.00000000
     atom  221 type  2   force =     0.00000000    0.00000000    0.00000000
     atom  222 type  2   force =     0.00000000    0.00000000    0.00000000
     atom  223 type  2   force =     0.00000000    0.00000000    0.00000000
     atom  224 type  2   force =     0.00000000    0.00000000    0.00000000
     atom  225 type  2   force =     0.00000000    0.00000000    0.00000000
     atom  226 type  2   force =     0.00000000    0.00000000    0.00000000
     atom  227 type  2   force =     0.00000000    0.00000000    0.00000000
     The Hubbard contrib.    to forces
     atom    1 type  1   force =     0.00000000    0.00000000    0.00000000
     atom    2 type  1   force =     0.00000000    0.00000000    0.00000000
     atom    3 type  1   force =     0.00000000    0.00000000    0.00000000
     atom    4 type  1   force =     0.00000000    0.00000000    0.00000000
     atom    5 type  1   force =     0.00000000    0.00000000    0.00000000
     atom    6 type  1   force =     0.00000000    0.00000000    0.00000000
     atom    7 type  1   force =     0.00000000    0.00000000    0.00000000
     atom    8 type  1   force =     0.00000000    0.00000000    0.00000000
     atom    9 type  1   force =     0.00000000    0.00000000    0.00000000
     atom   10 type  1   force =     0.00000000    0.00000000    0.00000000
     atom   11 type  1   force =     0.00000000    0.00000000    0.00000000
     atom   12 type  1   force =     0.00000000    0.00000000    0.00000000
     atom   13 type  1   force =     0.00000000    0.00000000    0.00000000
     atom   14 type  1   force =     0.00000000    0.00000000    0.00000000
     atom   15 type  1   force =     0.00000000    0.00000000    0.00000000
     atom   16 type  1   force =     0.00000000    0.00000000    0.00000000
     atom   17 type  1   force =     0.00000000    0.00000000    0.00000000
     atom   18 type  1   force =     0.00000000    0.00000000    0.00000000
     atom   19 type  1   force =     0.00000000    0.00000000    0.00000000
     atom   20 type  1   force =     0.00000000    0.00000000    0.00000000
     atom   21 type  1   force =     0.00000000    0.00000000    0.00000000
     atom   22 type  1   force =     0.00000000    0.00000000    0.00000000
     atom   23 type  1   force =     0.00000000    0.00000000    0.00000000
     atom   24 type  1   force =     0.00000000    0.00000000    0.00000000
     atom   25 type  1   force =     0.00000000    0.00000000    0.00000000
     atom   26 type  1   force =     0.00000000    0.00000000    0.00000000
     atom   27 type  1   force =     0.00000000    0.00000000    0.00000000
     atom   28 type  1   force =     0.00000000    0.00000000    0.00000000
     atom   29 type  1   force =     0.00000000    0.00000000    0.00000000
     atom   30 type  1   force =     0.00000000    0.00000000    0.00000000
     atom   31 type  1   force =     0.00000000    0.00000000    0.00000000
     atom   32 type  1   force =     0.00000000    0.00000000    0.00000000
     atom   33 type  1   force =     0.00000000    0.00000000    0.00000000
     atom   34 type  1   force =     0.00000000    0.00000000    0.00000000
     atom   35 type  1   force =     0.00000000    0.00000000    0.00000000
     atom   36 type  1   force =     0.00000000    0.00000000    0.00000000
     atom   37 type  1   force =     0.00000000    0.00000000    0.00000000
     atom   38 type  1   force =     0.00000000    0.00000000    0.00000000
     atom   39 type  1   force =     0.00000000    0.00000000    0.00000000
     atom   40 type  1   force =     0.00000000    0.00000000    0.00000000
     atom   41 type  1   force =     0.00000000    0.00000000    0.00000000
     atom   42 type  1   force =     0.00000000    0.00000000    0.00000000
     atom   43 type  1   force =     0.00000000    0.00000000    0.00000000
     atom   44 type  1   force =     0.00000000    0.00000000    0.00000000
     atom   45 type  1   force =     0.00000000    0.00000000    0.00000000
     atom   46 type  1   force =     0.00000000    0.00000000    0.00000000
     atom   47 type  1   force =     0.00000000    0.00000000    0.00000000
     atom   48 type  1   force =     0.00000000    0.00000000    0.00000000
     atom   49 type  1   force =     0.00000000    0.00000000    0.00000000
     atom   50 type  1   force =     0.00000000    0.00000000    0.00000000
     atom   51 type  1   force =     0.00000000    0.00000000    0.00000000
     atom   52 type  1   force =     0.00000000    0.00000000    0.00000000
     atom   53 type  1   force =     0.00000000    0.00000000    0.00000000
     atom   54 type  1   force =     0.00000000    0.00000000    0.00000000
     atom   55 type  1   force =     0.00000000    0.00000000    0.00000000
     atom   56 type  1   force =     0.00000000    0.00000000    0.00000000
     atom   57 type  1   force =     0.00000000    0.00000000    0.00000000
     atom   58 type  1   force =     0.00000000    0.00000000    0.00000000
     atom   59 type  1   force =     0.00000000    0.00000000    0.00000000
     atom   60 type  1   force =     0.00000000    0.00000000    0.00000000
[...]
     atom  213 type  1   force =     0.00000000    0.00000000    0.00000000
     atom  214 type  1   force =     0.00000000    0.00000000    0.00000000
     atom  215 type  2   force =     0.00000000    0.00000000    0.00000000
     atom  216 type  2   force =     0.00000000    0.00000000    0.00000000
     atom  217 type  2   force =     0.00000000    0.00000000    0.00000000
     atom  218 type  2   force =     0.00000000    0.00000000    0.00000000
     atom  219 type  2   force =     0.00000000    0.00000000    0.00000000
     atom  220 type  2   force =     0.00000000    0.00000000    0.00000000
     atom  221 type  2   force =     0.00000000    0.00000000    0.00000000
     atom  222 type  2   force =     0.00000000    0.00000000    0.00000000
     atom  223 type  2   force =     0.00000000    0.00000000    0.00000000
     atom  224 type  2   force =     0.00000000    0.00000000    0.00000000
     atom  225 type  2   force =     0.00000000    0.00000000    0.00000000
     atom  226 type  2   force =     0.00000000    0.00000000    0.00000000
     atom  227 type  2   force =     0.00000000    0.00000000    0.00000000
     The SCF correction term to forces
     atom    1 type  1   force =     0.00000011    0.00000413   -0.00000187
     atom    2 type  1   force =     0.00000157    0.00000223   -0.00000742
     atom    3 type  1   force =     0.00000113   -0.00000262   -0.00000523
     atom    4 type  1   force =     0.00000205    0.00000375    0.00000367
     atom    5 type  1   force =     0.00000022   -0.00000055    0.00000446
     atom    6 type  1   force =    -0.00000022   -0.00000028    0.00000016
     atom    7 type  1   force =    -0.00000016   -0.00000330    0.00000444
     atom    8 type  1   force =    -0.00000029    0.00000215    0.00000996
     atom    9 type  1   force =    -0.00000156    0.00000014    0.00000908
     atom   10 type  1   force =    -0.00000133   -0.00000301    0.00000752
     atom   11 type  1   force =    -0.00000342   -0.00000495    0.00000804
     atom   12 type  1   force =    -0.00000154    0.00000278    0.00000522
     atom   13 type  1   force =    -0.00000125    0.00000120    0.00000222
     atom   14 type  1   force =    -0.00000128   -0.00000228    0.00000770
     atom   15 type  1   force =    -0.00000287   -0.00000432    0.00000480
     atom   16 type  1   force =    -0.00000358    0.00000622   -0.00000295
     atom   17 type  1   force =    -0.00000265    0.00000498   -0.00000533
     atom   18 type  1   force =    -0.00000226    0.00000019   -0.00000089
     atom   19 type  1   force =    -0.00000184   -0.00000353   -0.00000267
     atom   20 type  1   force =     0.00000041    0.00000688   -0.00000794
     atom   21 type  1   force =     0.00000257    0.00000414   -0.00000711
     atom   22 type  1   force =    -0.00000191    0.00000170   -0.00000935
     atom   23 type  1   force =    -0.00000052   -0.00000214   -0.00000935
     atom   24 type  1   force =    -0.00000128   -0.00000507   -0.00000783
     atom   25 type  1   force =     0.00000185   -0.00000518   -0.00000422
     atom   26 type  1   force =     0.00000107   -0.00000719   -0.00000424
     atom   27 type  1   force =     0.00000310   -0.00000212   -0.00000141
     atom   28 type  1   force =     0.00000045   -0.00000281   -0.00000139
     atom   29 type  1   force =    -0.00000136   -0.00000304    0.00000231
     atom   30 type  1   force =    -0.00000106   -0.00000362    0.00000169
     atom   31 type  1   force =     0.00000083    0.00000024    0.00000664
     atom   32 type  1   force =    -0.00000000   -0.00000424    0.00000782
     atom   33 type  1   force =    -0.00000165   -0.00000308    0.00000805
     atom   34 type  1   force =    -0.00000112   -0.00000103    0.00000641
     atom   35 type  1   force =    -0.00000220    0.00000175    0.00000560
     atom   36 type  1   force =    -0.00000325   -0.00000546    0.00000723
     atom   37 type  1   force =    -0.00000481   -0.00000518    0.00000366
     atom   38 type  1   force =     0.00000001   -0.00000296    0.00000567
     atom   39 type  1   force =    -0.00000139   -0.00000231   -0.00000072
     atom   40 type  1   force =    -0.00000126   -0.00000697    0.00000001
     atom   41 type  1   force =    -0.00000211   -0.00000879   -0.00000396
     atom   42 type  1   force =    -0.00000256   -0.00000659   -0.00000285
     atom   43 type  1   force =     0.00000163   -0.00000309   -0.00000336
     atom   44 type  1   force =    -0.00000131   -0.00000645   -0.00000609
     atom   45 type  1   force =     0.00000000   -0.00000731   -0.00000383
     atom   46 type  1   force =    -0.00000135   -0.00001072   -0.00000717
     atom   47 type  1   force =     0.00000098   -0.00000606   -0.00000588
     atom   48 type  1   force =    -0.00000070   -0.00000216   -0.00000081
     atom   49 type  1   force =     0.00000213    0.00000121    0.00000216
     atom   50 type  1   force =     0.00000487    0.00000499   -0.00000256
     atom   51 type  1   force =     0.00000515    0.00000409   -0.00000108
     atom   52 type  1   force =     0.00000298    0.00000031    0.00000430
     atom   53 type  1   force =     0.00000089    0.00000274    0.00000506
     atom   54 type  1   force =     0.00000008    0.00000345    0.00000679
     atom   55 type  1   force =     0.00000019    0.00000367    0.00000845
     atom   56 type  1   force =     0.00000049    0.00000100    0.00000878
     atom   57 type  1   force =     0.00000035    0.00000303    0.00000636
     atom   58 type  1   force =     0.00000090    0.00000333    0.00000867
     atom   59 type  1   force =    -0.00000019    0.00000315    0.00000660
     atom   60 type  1   force =    -0.00000122    0.00000245    0.00000240
[...]
     atom  213 type  1   force =    -0.00000348    0.00000631   -0.00000599
     atom  214 type  1   force =    -0.00000499    0.00000597   -0.00000741
     atom  215 type  2   force =     0.00000074    0.00000079   -0.00000043
     atom  216 type  2   force =     0.00000080    0.00000040   -0.00000051
     atom  217 type  2   force =    -0.00000061    0.00000162   -0.00000063
     atom  218 type  2   force =     0.00000084   -0.00000256   -0.00000055
     atom  219 type  2   force =    -0.00000048    0.00000131    0.00000001
     atom  220 type  2   force =    -0.00000025   -0.00000039   -0.00000214
     atom  221 type  2   force =     0.00000052   -0.00000114    0.00000239
     atom  222 type  2   force =     0.00000097    0.00000124   -0.00000058
     atom  223 type  2   force =     0.00000038   -0.00000045   -0.00000056
     atom  224 type  2   force =    -0.00000055    0.00000099   -0.00000239
     atom  225 type  2   force =    -0.00000125    0.00000080   -0.00000177
     atom  226 type  2   force =     0.00000005    0.00000087    0.00000173
     atom  227 type  2   force =    -0.00000015    0.00000165   -0.00000204

     Total force =     0.124001     Total SCF correction =     0.000107

     Computing stress (Cartesian axis) and pressure

          total   stress  (Ry/bohr**3)                   (kbar)     P=   17.41
   0.00011729  -0.00000134  -0.00000145         17.25     -0.20     -0.21
  -0.00000134   0.00012043  -0.00000343         -0.20     17.72     -0.50
  -0.00000145  -0.00000343   0.00011733         -0.21     -0.50     17.26

     kinetic stress (kbar)   2293.17      0.64     -0.99
                                0.64   2293.94      0.11
                               -0.99      0.11   2293.18

     local   stress (kbar)  -1237.10     -0.91      2.07
                               -0.91  -1241.79      3.31
                                2.07      3.31  -1244.94

     nonloc. stress (kbar)   2565.43      0.49     -0.42
                                0.49   2565.20      0.78
                               -0.42      0.78   2565.75

     hartree stress (kbar)    211.62      0.64     -0.83
                                0.64    214.02     -1.29
                               -0.83     -1.29    214.30

     exc-cor stress (kbar)   -809.12     -0.05      0.00
                               -0.05   -809.10     -0.02
                                0.00     -0.02   -809.10

     corecor stress (kbar)      0.00      0.00      0.00
                                0.00      0.00      0.00
                                0.00      0.00      0.00

     ewald   stress (kbar)  -3006.74     -1.02     -0.05
                               -1.02  -3004.56     -3.39
                               -0.05     -3.39  -3001.93

     hubbard stress (kbar)      0.00      0.00      0.00
                                0.00      0.00      0.00
                                0.00      0.00      0.00

     london  stress (kbar)      0.00      0.00      0.00
                                0.00      0.00      0.00
                                0.00      0.00      0.00

     DFT-D3  stress (kbar)      0.00      0.00      0.00
                                0.00      0.00      0.00
                                0.00      0.00      0.00

     XDM     stress (kbar)      0.00      0.00      0.00
                                0.00      0.00      0.00
                                0.00      0.00      0.00

     dft-nl  stress (kbar)      0.00      0.00      0.00
                                0.00      0.00      0.00
                                0.00      0.00      0.00

     TS-vdW  stress (kbar)      0.00      0.00      0.00
                                0.00      0.00      0.00
                                0.00      0.00      0.00

     Writing output data file divacancy_optimize1.save

     General routines

     Parallel routines

   This run was terminated on:  11: 1:58   7Nov2020

   JOB DONE.