     Program PWSCF v.6.2 (svn rev. 14038) starts on  7Nov2020 at 21:19:30

     R & G space division:  proc/nbgrp/npool/nimage =       8
     Waiting for input...
     Reading input from standard input
Warning: card &IONS ignored
Warning: card / ignored

     Current dimensions of program PWSCF are:
     Max number of different atomic species (ntypx) = 10
     Max number of k-points (npk) =  40000
     Max angular momentum in pseudopotentials (lmaxx) =  3

     Subspace diagonalization in iterative solution of the eigenvalue problem:
     a serial algorithm will be used

     bravais-lattice index     =            0
     lattice parameter (alat)  =      30.8403  a.u.
     unit-cell volume          =   29332.9180 (a.u.)^3
     number of atoms/cell      =          223
     number of atomic types    =            2
     number of electrons       =       874.00
     number of Kohn-Sham states=          524
     kinetic-energy cutoff     =      42.0000  Ry
     charge density cutoff     =     168.0000  Ry
     convergence threshold     =      1.0E-08
     mixing beta               =       0.3000
     number of iterations used =            8  plain     mixing
     Exchange-correlation      = SLA-PW-PBX-PBC ( 1  4  3  4 0 0)

     celldm(1)=  30.840288  celldm(2)=   0.000000  celldm(3)=   0.000000
     celldm(4)=   0.000000  celldm(5)=   0.000000  celldm(6)=   0.000000

     crystal axes: (cart. coord. in units of alat)
               a(1) = (   1.000000   0.000000   0.000000 )
               a(2) = (   0.000000   1.000000   0.000000 )
               a(3) = (   0.000000   0.000000   1.000000 )

     reciprocal axes: (cart. coord. in units 2 pi/alat)
               b(1) = (  1.000000  0.000000  0.000000 )
               b(2) = (  0.000000  1.000000  0.000000 )
               b(3) = (  0.000000  0.000000  1.000000 )

     PseudoPot. # 1 for Si read from file:
     ./Si.pbe-hgh.UPF
     MD5 check sum: 9a9f0f6e09139bfdb36b03ff6bc35900
     Pseudo is Norm-conserving, Zval =  4.0
     Generated in analytical, separable form
     Using radial grid of 1141 points,  3 beta functions with:
                l(1) =   0
                l(2) =   0
                l(3) =   1

     PseudoPot. # 2 for H  read from file:
     ./H.pbe-hgh.UPF
     MD5 check sum: 5f350582108a937bec95f27f5610ab08
     Pseudo is Norm-conserving, Zval =  1.0
     Generated in analytical, separable form
     Using radial grid of  929 points,  0 beta functions with:

     atomic species   valence    mass     pseudopotential
        Si             4.00    28.08000     Si( 1.00)
        H              1.00     1.00784     H ( 1.00)

     No symmetry found

                                    s                        frac. trans.

      isym =  1     identity

 cryst.   s( 1) = (     1          0          0      )
                  (     0          1          0      )
                  (     0          0          1      )

 cart.    s( 1) = (  1.0000000  0.0000000  0.0000000 )
                  (  0.0000000  1.0000000  0.0000000 )
                  (  0.0000000  0.0000000  1.0000000 )

   Cartesian axes

     site n.     atom                  positions (alat units)
         1           Si  tau(   1) = (   0.7093500   0.9618750   0.1374340  )
         2           Si  tau(   2) = (   0.0061926   0.9997230   0.9951010  )
         3           Si  tau(   3) = (   0.0855055   0.0841211   0.0814139  )
         4           Si  tau(   4) = (   0.1682620   0.1671220   0.9978820  )
         5           Si  tau(   5) = (   0.2510280   0.2500010   0.0820547  )
         6           Si  tau(   6) = (   0.1669780   0.0012405   0.1663520  )
         7           Si  tau(   7) = (   0.2506380   0.0835171   0.2498480  )
         8           Si  tau(   8) = (   0.0059202   0.1721480   0.1632410  )
         9           Si  tau(   9) = (   0.0870751   0.2522620   0.2495960  )
        10           Si  tau(  10) = (   0.0033546   0.0025334   0.3346230  )
        11           Si  tau(  11) = (   0.0858466   0.0845272   0.4186560  )
        12           Si  tau(  12) = (   0.1680180   0.1670550   0.3333790  )
        13           Si  tau(  13) = (   0.2503610   0.2505330   0.4168210  )
        14           Si  tau(  14) = (   0.1682540   0.9997370   0.5001890  )
        15           Si  tau(  15) = (   0.2508300   0.0839757   0.5826870  )
        16           Si  tau(  16) = (   0.0006769   0.1673410   0.5007180  )
        17           Si  tau(  17) = (   0.0823898   0.2514500   0.5848170  )
        18           Si  tau(  18) = (   0.0010789   0.9989940   0.6651170  )
        19           Si  tau(  19) = (   0.0848965   0.0817349   0.7484870  )
        20           Si  tau(  20) = (   0.1669440   0.1669540   0.6659090  )
        21           Si  tau(  21) = (   0.2515920   0.2493580   0.7487780  )
        22           Si  tau(  22) = (   0.1686960   0.9988990   0.8319020  )
        23           Si  tau(  23) = (   0.2512280   0.0837872   0.9145150  )
        24           Si  tau(  24) = (   0.0021265   0.1649830   0.8317830  )
        25           Si  tau(  25) = (   0.0841267   0.2499560   0.9149820  )
        26           Si  tau(  26) = (   0.0016711   0.3342100   0.9981410  )
        27           Si  tau(  27) = (   0.0846547   0.4166320   0.0822265  )
        28           Si  tau(  28) = (   0.1672180   0.4999870   0.9987410  )
        29           Si  tau(  29) = (   0.2500350   0.5837280   0.0813990  )
        30           Si  tau(  30) = (   0.1691270   0.3344820   0.1653250  )
        31           Si  tau(  31) = (   0.2514900   0.4170930   0.2489400  )
        32           Si  tau(  32) = (   0.0005611   0.4989700   0.1655210  )
        33           Si  tau(  33) = (   0.0836635   0.5816170   0.2495450  )
        34           Si  tau(  34) = (   0.0001442   0.3328600   0.3318410  )
        35           Si  tau(  35) = (   0.0835903   0.4158350   0.4151430  )
        36           Si  tau(  36) = (   0.1672480   0.4988500   0.3324390  )
        37           Si  tau(  37) = (   0.2498290   0.5829020   0.4153600  )
        38           Si  tau(  38) = (   0.1658690   0.3330140   0.4998840  )
        39           Si  tau(  39) = (   0.2508870   0.4162730   0.5812920  )
        40           Si  tau(  40) = (   0.0008945   0.5003740   0.4972140  )
        41           Si  tau(  41) = (   0.0836869   0.5828190   0.5817450  )
        42           Si  tau(  42) = (   0.9941000   0.3397730   0.6722970  )
        43           Si  tau(  43) = (   0.0879825   0.4178700   0.7499470  )
        44           Si  tau(  44) = (   0.1686560   0.5002800   0.6642980  )
        45           Si  tau(  45) = (   0.2509540   0.5829610   0.7486310  )
        46           Si  tau(  46) = (   0.1688970   0.3324940   0.8324880  )
        47           Si  tau(  47) = (   0.2507930   0.4167000   0.9157960  )
        48           Si  tau(  48) = (   0.0025976   0.5003570   0.8315440  )
        49           Si  tau(  49) = (   0.0842041   0.5839550   0.9160530  )
        50           Si  tau(  50) = (   0.9986890   0.6654070   0.9985520  )
        51           Si  tau(  51) = (   0.0808259   0.7469010   0.0838217  )
        52           Si  tau(  52) = (   0.1740420   0.8254140   0.0057810  )
        53           Si  tau(  53) = (   0.2515360   0.9197070   0.0835371  )
        54           Si  tau(  54) = (   0.1660590   0.6652950   0.1657890  )
        55           Si  tau(  55) = (   0.2489960   0.7503460   0.2479300  )
        56           Si  tau(  56) = (   0.9999660   0.8336350   0.1654300  )
        57           Si  tau(  57) = (   0.0828946   0.9178550   0.2485730  )
        58           Si  tau(  58) = (   0.0003640   0.6660680   0.3316630  )
        59           Si  tau(  59) = (   0.0833842   0.7498280   0.4147230  )
        60           Si  tau(  60) = (   0.1661400   0.8337850   0.3316820  )
[...]
       209           Si  tau( 209) = (   0.7508110   0.9156730   0.5822990  )
       210           Si  tau( 210) = (   0.6662640   0.6662420   0.6655950  )
       211           Si  tau( 211) = (   0.7507810   0.7488100   0.7481740  )
       212           Si  tau( 212) = (   0.8343190   0.8323310   0.6652890  )
       213           Si  tau( 213) = (   0.9182760   0.9153840   0.7483330  )
       214           Si  tau( 214) = (   0.8345570   0.6650260   0.8306590  )
       215           Si  tau( 215) = (   0.9170740   0.7486220   0.9139210  )
       216           Si  tau( 216) = (   0.6666740   0.8321050   0.8304280  )
       217           Si  tau( 217) = (   0.7502880   0.9160060   0.9122520  )
       218           H   tau( 218) = (   0.9013240   0.9244380   0.2139270  )
       219           H   tau( 219) = (   0.7608200   0.9087690   0.0825938  )
       220           H   tau( 220) = (   0.7988950   0.9767860   0.2461490  )
       221           H   tau( 221) = (   0.6053130   0.2701050   0.9323350  )
       222           H   tau( 222) = (   0.2307140   0.7673620   0.0624758  )
       223           H   tau( 223) = (   0.9367930   0.3945520   0.7314960  )

   Crystallographic axes

     site n.     atom                  positions (cryst. coord.)
         1           Si  tau(   1) = (  0.7093500  0.9618750  0.1374340  )
         2           Si  tau(   2) = (  0.0061926  0.9997230  0.9951010  )
         3           Si  tau(   3) = (  0.0855055  0.0841211  0.0814139  )
         4           Si  tau(   4) = (  0.1682620  0.1671220  0.9978820  )
         5           Si  tau(   5) = (  0.2510280  0.2500010  0.0820547  )
         6           Si  tau(   6) = (  0.1669780  0.0012405  0.1663520  )
         7           Si  tau(   7) = (  0.2506380  0.0835171  0.2498480  )
         8           Si  tau(   8) = (  0.0059202  0.1721480  0.1632410  )
         9           Si  tau(   9) = (  0.0870751  0.2522620  0.2495960  )
        10           Si  tau(  10) = (  0.0033546  0.0025334  0.3346230  )
        11           Si  tau(  11) = (  0.0858466  0.0845272  0.4186560  )
        12           Si  tau(  12) = (  0.1680180  0.1670550  0.3333790  )
        13           Si  tau(  13) = (  0.2503610  0.2505330  0.4168210  )
        14           Si  tau(  14) = (  0.1682540  0.9997370  0.5001890  )
        15           Si  tau(  15) = (  0.2508300  0.0839757  0.5826870  )
        16           Si  tau(  16) = (  0.0006769  0.1673410  0.5007180  )
        17           Si  tau(  17) = (  0.0823898  0.2514500  0.5848170  )
        18           Si  tau(  18) = (  0.0010789  0.9989940  0.6651170  )
        19           Si  tau(  19) = (  0.0848965  0.0817349  0.7484870  )
        20           Si  tau(  20) = (  0.1669440  0.1669540  0.6659090  )
        21           Si  tau(  21) = (  0.2515920  0.2493580  0.7487780  )
        22           Si  tau(  22) = (  0.1686960  0.9988990  0.8319020  )
        23           Si  tau(  23) = (  0.2512280  0.0837872  0.9145150  )
        24           Si  tau(  24) = (  0.0021265  0.1649830  0.8317830  )
        25           Si  tau(  25) = (  0.0841267  0.2499560  0.9149820  )
        26           Si  tau(  26) = (  0.0016711  0.3342100  0.9981410  )
        27           Si  tau(  27) = (  0.0846547  0.4166320  0.0822265  )
[...]
     atom   44 type  1   force =     0.00000000    0.00000000    0.00000000
     atom   45 type  1   force =     0.00000000    0.00000000    0.00000000
     atom   46 type  1   force =     0.00000000    0.00000000    0.00000000
     atom   47 type  1   force =     0.00000000    0.00000000    0.00000000
     atom   48 type  1   force =     0.00000000    0.00000000    0.00000000
     atom   49 type  1   force =     0.00000000    0.00000000    0.00000000
     atom   50 type  1   force =     0.00000000    0.00000000    0.00000000
     atom   51 type  1   force =     0.00000000    0.00000000    0.00000000
     atom   52 type  1   force =     0.00000000    0.00000000    0.00000000
     atom   53 type  1   force =     0.00000000    0.00000000    0.00000000
     atom   54 type  1   force =     0.00000000    0.00000000    0.00000000
     atom   55 type  1   force =     0.00000000    0.00000000    0.00000000
     atom   56 type  1   force =     0.00000000    0.00000000    0.00000000
     atom   57 type  1   force =     0.00000000    0.00000000    0.00000000
     atom   58 type  1   force =     0.00000000    0.00000000    0.00000000
     atom   59 type  1   force =     0.00000000    0.00000000    0.00000000
     atom   60 type  1   force =     0.00000000    0.00000000    0.00000000
[...]
     atom  209 type  1   force =     0.00000000    0.00000000    0.00000000
     atom  210 type  1   force =     0.00000000    0.00000000    0.00000000
     atom  211 type  1   force =     0.00000000    0.00000000    0.00000000
     atom  212 type  1   force =     0.00000000    0.00000000    0.00000000
     atom  213 type  1   force =     0.00000000    0.00000000    0.00000000
     atom  214 type  1   force =     0.00000000    0.00000000    0.00000000
     atom  215 type  1   force =     0.00000000    0.00000000    0.00000000
     atom  216 type  1   force =     0.00000000    0.00000000    0.00000000
     atom  217 type  1   force =     0.00000000    0.00000000    0.00000000
     atom  218 type  2   force =     0.00000000    0.00000000    0.00000000
     atom  219 type  2   force =     0.00000000    0.00000000    0.00000000
     atom  220 type  2   force =     0.00000000    0.00000000    0.00000000
     atom  221 type  2   force =     0.00000000    0.00000000    0.00000000
     atom  222 type  2   force =     0.00000000    0.00000000    0.00000000
     atom  223 type  2   force =     0.00000000    0.00000000    0.00000000
     The Hubbard contrib.    to forces
     atom    1 type  1   force =     0.00000000    0.00000000    0.00000000
     atom    2 type  1   force =     0.00000000    0.00000000    0.00000000
     atom    3 type  1   force =     0.00000000    0.00000000    0.00000000
     atom    4 type  1   force =     0.00000000    0.00000000    0.00000000
     atom    5 type  1   force =     0.00000000    0.00000000    0.00000000
     atom    6 type  1   force =     0.00000000    0.00000000    0.00000000
     atom    7 type  1   force =     0.00000000    0.00000000    0.00000000
     atom    8 type  1   force =     0.00000000    0.00000000    0.00000000
     atom    9 type  1   force =     0.00000000    0.00000000    0.00000000
     atom   10 type  1   force =     0.00000000    0.00000000    0.00000000
     atom   11 type  1   force =     0.00000000    0.00000000    0.00000000
     atom   12 type  1   force =     0.00000000    0.00000000    0.00000000
     atom   13 type  1   force =     0.00000000    0.00000000    0.00000000
     atom   14 type  1   force =     0.00000000    0.00000000    0.00000000
     atom   15 type  1   force =     0.00000000    0.00000000    0.00000000
     atom   16 type  1   force =     0.00000000    0.00000000    0.00000000
     atom   17 type  1   force =     0.00000000    0.00000000    0.00000000
     atom   18 type  1   force =     0.00000000    0.00000000    0.00000000
     atom   19 type  1   force =     0.00000000    0.00000000    0.00000000
     atom   20 type  1   force =     0.00000000    0.00000000    0.00000000
     atom   21 type  1   force =     0.00000000    0.00000000    0.00000000
     atom   22 type  1   force =     0.00000000    0.00000000    0.00000000
     atom   23 type  1   force =     0.00000000    0.00000000    0.00000000
     atom   24 type  1   force =     0.00000000    0.00000000    0.00000000
     atom   25 type  1   force =     0.00000000    0.00000000    0.00000000
     atom   26 type  1   force =     0.00000000    0.00000000    0.00000000
     atom   27 type  1   force =     0.00000000    0.00000000    0.00000000
     atom   28 type  1   force =     0.00000000    0.00000000    0.00000000
     atom   29 type  1   force =     0.00000000    0.00000000    0.00000000
     atom   30 type  1   force =     0.00000000    0.00000000    0.00000000
     atom   31 type  1   force =     0.00000000    0.00000000    0.00000000
     atom   32 type  1   force =     0.00000000    0.00000000    0.00000000
     atom   33 type  1   force =     0.00000000    0.00000000    0.00000000
     atom   34 type  1   force =     0.00000000    0.00000000    0.00000000
     atom   35 type  1   force =     0.00000000    0.00000000    0.00000000
     atom   36 type  1   force =     0.00000000    0.00000000    0.00000000
     atom   37 type  1   force =     0.00000000    0.00000000    0.00000000
     atom   38 type  1   force =     0.00000000    0.00000000    0.00000000
     atom   39 type  1   force =     0.00000000    0.00000000    0.00000000
     atom   40 type  1   force =     0.00000000    0.00000000    0.00000000
     atom   41 type  1   force =     0.00000000    0.00000000    0.00000000
     atom   42 type  1   force =     0.00000000    0.00000000    0.00000000
     atom   43 type  1   force =     0.00000000    0.00000000    0.00000000
     atom   44 type  1   force =     0.00000000    0.00000000    0.00000000
     atom   45 type  1   force =     0.00000000    0.00000000    0.00000000
     atom   46 type  1   force =     0.00000000    0.00000000    0.00000000
     atom   47 type  1   force =     0.00000000    0.00000000    0.00000000
     atom   48 type  1   force =     0.00000000    0.00000000    0.00000000
     atom   49 type  1   force =     0.00000000    0.00000000    0.00000000
     atom   50 type  1   force =     0.00000000    0.00000000    0.00000000
     atom   51 type  1   force =     0.00000000    0.00000000    0.00000000
     atom   52 type  1   force =     0.00000000    0.00000000    0.00000000
     atom   53 type  1   force =     0.00000000    0.00000000    0.00000000
     atom   54 type  1   force =     0.00000000    0.00000000    0.00000000
     atom   55 type  1   force =     0.00000000    0.00000000    0.00000000
     atom   56 type  1   force =     0.00000000    0.00000000    0.00000000
     atom   57 type  1   force =     0.00000000    0.00000000    0.00000000
     atom   58 type  1   force =     0.00000000    0.00000000    0.00000000
     atom   59 type  1   force =     0.00000000    0.00000000    0.00000000
     atom   60 type  1   force =     0.00000000    0.00000000    0.00000000
[...]
     atom  209 type  1   force =     0.00000000    0.00000000    0.00000000
     atom  210 type  1   force =     0.00000000    0.00000000    0.00000000
     atom  211 type  1   force =     0.00000000    0.00000000    0.00000000
     atom  212 type  1   force =     0.00000000    0.00000000    0.00000000
     atom  213 type  1   force =     0.00000000    0.00000000    0.00000000
     atom  214 type  1   force =     0.00000000    0.00000000    0.00000000
     atom  215 type  1   force =     0.00000000    0.00000000    0.00000000
     atom  216 type  1   force =     0.00000000    0.00000000    0.00000000
     atom  217 type  1   force =     0.00000000    0.00000000    0.00000000
     atom  218 type  2   force =     0.00000000    0.00000000    0.00000000
     atom  219 type  2   force =     0.00000000    0.00000000    0.00000000
     atom  220 type  2   force =     0.00000000    0.00000000    0.00000000
     atom  221 type  2   force =     0.00000000    0.00000000    0.00000000
     atom  222 type  2   force =     0.00000000    0.00000000    0.00000000
     atom  223 type  2   force =     0.00000000    0.00000000    0.00000000
     The SCF correction term to forces
     atom    1 type  1   force =    -0.00000744    0.00000111   -0.00000922
     atom    2 type  1   force =     0.00000147   -0.00000105   -0.00001149
     atom    3 type  1   force =     0.00000289    0.00000058   -0.00000966
     atom    4 type  1   force =     0.00000197   -0.00000188   -0.00000748
     atom    5 type  1   force =     0.00000363   -0.00000071   -0.00000686
     atom    6 type  1   force =     0.00000473   -0.00000199   -0.00000678
     atom    7 type  1   force =     0.00000465   -0.00000042   -0.00000111
     atom    8 type  1   force =    -0.00000147    0.00000303   -0.00000465
     atom    9 type  1   force =    -0.00000030    0.00000139   -0.00000147
     atom   10 type  1   force =     0.00000040    0.00000083    0.00000606
     atom   11 type  1   force =     0.00000107   -0.00000073    0.00000486
     atom   12 type  1   force =     0.00000267    0.00000060    0.00000242
     atom   13 type  1   force =     0.00000527    0.00000147    0.00000530
     atom   14 type  1   force =     0.00000390   -0.00000218    0.00000795
     atom   15 type  1   force =     0.00000457   -0.00000158    0.00000689
     atom   16 type  1   force =    -0.00000056   -0.00000374    0.00000317
     atom   17 type  1   force =     0.00000536   -0.00000320    0.00000344
     atom   18 type  1   force =     0.00000001   -0.00000435    0.00000598
     atom   19 type  1   force =     0.00000315   -0.00000573    0.00000417
     atom   20 type  1   force =     0.00000693   -0.00000432    0.00000602
     atom   21 type  1   force =     0.00000875   -0.00000122    0.00000212
     atom   22 type  1   force =     0.00000166   -0.00000306   -0.00000121
     atom   23 type  1   force =     0.00000344   -0.00000226   -0.00000621
     atom   24 type  1   force =    -0.00000115   -0.00000633    0.00000178
     atom   25 type  1   force =     0.00000229   -0.00000334   -0.00000199
     atom   26 type  1   force =    -0.00000234   -0.00000199   -0.00000194
     atom   27 type  1   force =     0.00000003   -0.00000019   -0.00000360
     atom   28 type  1   force =     0.00000359    0.00000199   -0.00000443
     atom   29 type  1   force =     0.00000234    0.00000375   -0.00000632
     atom   30 type  1   force =     0.00000083    0.00000059   -0.00000372
     atom   31 type  1   force =     0.00000264    0.00000126    0.00000091
     atom   32 type  1   force =    -0.00000136   -0.00000003   -0.00000294
     atom   33 type  1   force =     0.00000103    0.00000012   -0.00000045
     atom   34 type  1   force =    -0.00000094    0.00000068   -0.00000114
     atom   35 type  1   force =     0.00000361    0.00000194    0.00000069
     atom   36 type  1   force =     0.00000304    0.00000125    0.00000299
     atom   37 type  1   force =     0.00000630    0.00000178    0.00000620
     atom   38 type  1   force =     0.00000797    0.00000225    0.00000309
     atom   39 type  1   force =     0.00001020    0.00000244    0.00000435
     atom   40 type  1   force =     0.00000124    0.00000310    0.00000063
     atom   41 type  1   force =     0.00000610    0.00000453    0.00000287
     atom   42 type  1   force =     0.00000220   -0.00000286    0.00000394
     atom   43 type  1   force =     0.00000913    0.00000152    0.00000377
     atom   44 type  1   force =     0.00000976    0.00000311    0.00000285
     atom   45 type  1   force =     0.00000839    0.00000256   -0.00000059
     atom   46 type  1   force =     0.00000723   -0.00000116   -0.00000080
     atom   47 type  1   force =     0.00000712   -0.00000020   -0.00000583
     atom   48 type  1   force =     0.00000082    0.00000395    0.00000328
     atom   49 type  1   force =     0.00000268    0.00000462   -0.00000253
     atom   50 type  1   force =     0.00000184    0.00000271   -0.00000577
     atom   51 type  1   force =     0.00000505    0.00000063   -0.00000913
     atom   52 type  1   force =     0.00000477   -0.00000134   -0.00000833
     atom   53 type  1   force =     0.00000299   -0.00000380   -0.00000997
     atom   54 type  1   force =     0.00000361    0.00000194   -0.00000566
     atom   55 type  1   force =     0.00000430   -0.00000056   -0.00000134
     atom   56 type  1   force =     0.00000358   -0.00000473   -0.00000654
     atom   57 type  1   force =     0.00000492   -0.00000223   -0.00000047
     atom   58 type  1   force =    -0.00000045   -0.00000133    0.00000218
     atom   59 type  1   force =     0.00000308   -0.00000078    0.00000627
     atom   60 type  1   force =     0.00000503   -0.00000226    0.00000363
[...]
     atom  209 type  1   force =    -0.00000416   -0.00000132    0.00000689
     atom  210 type  1   force =    -0.00000668    0.00000038    0.00000296
     atom  211 type  1   force =    -0.00000565    0.00000167    0.00000067
     atom  212 type  1   force =    -0.00000414    0.00000076    0.00000408
     atom  213 type  1   force =    -0.00000174   -0.00000052    0.00000280
     atom  214 type  1   force =    -0.00000550    0.00000406   -0.00000130
     atom  215 type  1   force =    -0.00000192    0.00000406   -0.00000567
     atom  216 type  1   force =    -0.00000194    0.00000050   -0.00000355
     atom  217 type  1   force =    -0.00000380    0.00000114   -0.00000927
     atom  218 type  2   force =    -0.00000028   -0.00000036   -0.00000059
     atom  219 type  2   force =    -0.00000148   -0.00000043   -0.00000369
     atom  220 type  2   force =    -0.00000185    0.00000037    0.00000135
     atom  221 type  2   force =     0.00000035    0.00000055   -0.00000112
     atom  222 type  2   force =     0.00000004    0.00000105   -0.00000302
     atom  223 type  2   force =    -0.00000047   -0.00000036    0.00000119

     Total force =     0.089849     Total SCF correction =     0.000115

     Computing stress (Cartesian axis) and pressure

          total   stress  (Ry/bohr**3)                   (kbar)     P=   14.65
   0.00010555   0.00000929  -0.00001167         15.53      1.37     -1.72
   0.00000929   0.00009748  -0.00000345          1.37     14.34     -0.51
  -0.00001167  -0.00000345   0.00009580         -1.72     -0.51     14.09

     kinetic stress (kbar)   2298.10     -0.06     -1.61
                               -0.06   2296.86      0.71
                               -1.61      0.71   2296.82

     local   stress (kbar)  -1215.19     -3.53      2.68
                               -3.53  -1216.25      5.44
                                2.68      5.44  -1216.18

     nonloc. stress (kbar)   2596.79     -0.62     -0.89
                               -0.62   2598.13      0.29
                               -0.89      0.29   2597.80

     hartree stress (kbar)    205.16      0.64     -0.52
                                0.64    202.19     -1.18
                               -0.52     -1.18    202.86

     exc-cor stress (kbar)   -812.19      0.01     -0.02
                                0.01   -812.18     -0.01
                               -0.02     -0.01   -812.19

     corecor stress (kbar)      0.00      0.00      0.00
                                0.00      0.00      0.00
                                0.00      0.00      0.00

     ewald   stress (kbar)  -3057.15      4.93     -1.35
                                4.93  -3054.41     -5.76
                               -1.35     -5.76  -3055.01

     hubbard stress (kbar)      0.00      0.00      0.00
                                0.00      0.00      0.00
                                0.00      0.00      0.00

     london  stress (kbar)      0.00      0.00      0.00
                                0.00      0.00      0.00
                                0.00      0.00      0.00

     DFT-D3  stress (kbar)      0.00      0.00      0.00
                                0.00      0.00      0.00
                                0.00      0.00      0.00

     XDM     stress (kbar)      0.00      0.00      0.00
                                0.00      0.00      0.00
                                0.00      0.00      0.00

     dft-nl  stress (kbar)      0.00      0.00      0.00
                                0.00      0.00      0.00
                                0.00      0.00      0.00

     TS-vdW  stress (kbar)      0.00      0.00      0.00
                                0.00      0.00      0.00
                                0.00      0.00      0.00

     Writing output data file interstitial_optimize2.save

     General routines

     Parallel routines

   This run was terminated on:   0:54:45   8Nov2020

   JOB DONE.