     Program PWSCF v.6.2 (svn rev. 14038) starts on  7Nov2020 at  8:53:44

     R & G space division:  proc/nbgrp/npool/nimage =       8
     Waiting for input...
     Reading input from standard input
Warning: card &IONS ignored
Warning: card / ignored

     Current dimensions of program PWSCF are:
     Max number of different atomic species (ntypx) = 10
     Max number of k-points (npk) =  40000
     Max angular momentum in pseudopotentials (lmaxx) =  3

     Subspace diagonalization in iterative solution of the eigenvalue problem:
     a serial algorithm will be used

     bravais-lattice index     =            0
     lattice parameter (alat)  =      30.8403  a.u.
     unit-cell volume          =   29332.9180 (a.u.)^3
     number of atoms/cell      =          222
     number of atomic types    =            2
     number of electrons       =       873.00
     number of Kohn-Sham states=          524
     kinetic-energy cutoff     =      42.0000  Ry
     charge density cutoff     =     168.0000  Ry
     convergence threshold     =      1.0E-08
     mixing beta               =       0.3000
     number of iterations used =            8  plain     mixing
     Exchange-correlation      = SLA-PW-PBX-PBC ( 1  4  3  4 0 0)

     celldm(1)=  30.840288  celldm(2)=   0.000000  celldm(3)=   0.000000
     celldm(4)=   0.000000  celldm(5)=   0.000000  celldm(6)=   0.000000

     crystal axes: (cart. coord. in units of alat)
               a(1) = (   1.000000   0.000000   0.000000 )
               a(2) = (   0.000000   1.000000   0.000000 )
               a(3) = (   0.000000   0.000000   1.000000 )

     reciprocal axes: (cart. coord. in units 2 pi/alat)
               b(1) = (  1.000000  0.000000  0.000000 )
               b(2) = (  0.000000  1.000000  0.000000 )
               b(3) = (  0.000000  0.000000  1.000000 )

     PseudoPot. # 1 for Si read from file:
     ./Si.pbe-hgh.UPF
     MD5 check sum: 9a9f0f6e09139bfdb36b03ff6bc35900
     Pseudo is Norm-conserving, Zval =  4.0
     Generated in analytical, separable form
     Using radial grid of 1141 points,  3 beta functions with:
                l(1) =   0
                l(2) =   0
                l(3) =   1

     PseudoPot. # 2 for H  read from file:
     ./H.pbe-hgh.UPF
     MD5 check sum: 5f350582108a937bec95f27f5610ab08
     Pseudo is Norm-conserving, Zval =  1.0
     Generated in analytical, separable form
     Using radial grid of  929 points,  0 beta functions with:

     atomic species   valence    mass     pseudopotential
        Si             4.00    28.08000     Si( 1.00)
        H              1.00     1.00784     H ( 1.00)

     No symmetry found

                                    s                        frac. trans.

      isym =  1     identity

 cryst.   s( 1) = (     1          0          0      )
                  (     0          1          0      )
                  (     0          0          1      )

 cart.    s( 1) = (  1.0000000  0.0000000  0.0000000 )
                  (  0.0000000  1.0000000  0.0000000 )
                  (  0.0000000  0.0000000  1.0000000 )

   Cartesian axes

     site n.     atom                  positions (alat units)
         1           Si  tau(   1) = (   0.9521410   0.8862020   0.9008560  )
         2           Si  tau(   2) = (   0.0020157   0.0108932   0.0094380  )
         3           Si  tau(   3) = (   0.0875243   0.0910237   0.0902606  )
         4           Si  tau(   4) = (   0.1683180   0.1687490   0.0002333  )
         5           Si  tau(   5) = (   0.2506020   0.2514440   0.0843103  )
         6           Si  tau(   6) = (   0.1679150   0.0011674   0.1687850  )
         7           Si  tau(   7) = (   0.2508950   0.0841747   0.2519780  )
         8           Si  tau(   8) = (   0.9989920   0.1698230   0.1699290  )
         9           Si  tau(   9) = (   0.0835007   0.2516120   0.2518470  )
        10           Si  tau(  10) = (   0.0000559   0.0010715   0.3347690  )
        11           Si  tau(  11) = (   0.0833689   0.0842828   0.4177320  )
        12           Si  tau(  12) = (   0.1665340   0.1673780   0.3341440  )
        13           Si  tau(  13) = (   0.2498330   0.2508200   0.4168150  )
        14           Si  tau(  14) = (   0.1665500   0.0005764   0.5006100  )
        15           Si  tau(  15) = (   0.2494680   0.0834647   0.5843790  )
        16           Si  tau(  16) = (   0.9995260   0.1667670   0.5011170  )
        17           Si  tau(  17) = (   0.0833448   0.2507170   0.5830490  )
        18           Si  tau(  18) = (   0.0020268   0.0028351   0.6668110  )
        19           Si  tau(  19) = (   0.0830923   0.0864837   0.7509330  )
        20           Si  tau(  20) = (   0.1667010   0.1679890   0.6667820  )
        21           Si  tau(  21) = (   0.2498670   0.2503420   0.7508230  )
        22           Si  tau(  22) = (   0.1660920   0.0024889   0.8328610  )
        23           Si  tau(  23) = (   0.2505680   0.0840142   0.9169610  )
        24           Si  tau(  24) = (   0.9994890   0.1685690   0.8343860  )
        25           Si  tau(  25) = (   0.0834366   0.2507580   0.9173760  )
        26           Si  tau(  26) = (   0.0000557   0.3333480   0.0006439  )
        27           Si  tau(  27) = (   0.0823853   0.4174080   0.0833128  )
        28           Si  tau(  28) = (   0.1679020   0.4991050   0.9999220  )
        29           Si  tau(  29) = (   0.2498780   0.5852060   0.0827032  )
        30           Si  tau(  30) = (   0.1660060   0.3341020   0.1669600  )
        31           Si  tau(  31) = (   0.2521660   0.4154410   0.2489730  )
        32           Si  tau(  32) = (   0.9943140   0.4962560   0.1671870  )
        33           Si  tau(  33) = (   0.0879456   0.5789710   0.2371350  )
        34           Si  tau(  34) = (  -0.0000369   0.3326070   0.3356130  )
        35           Si  tau(  35) = (   0.0838958   0.4173840   0.4149270  )
        36           Si  tau(  36) = (   0.1682610   0.4990340   0.3301930  )
        37           Si  tau(  37) = (   0.2495200   0.5837810   0.4148420  )
        38           Si  tau(  38) = (   0.1666310   0.3344010   0.4997860  )
        39           Si  tau(  39) = (   0.2501810   0.4168740   0.5833840  )
        40           Si  tau(  40) = (   0.9990150   0.4979970   0.4981060  )
        41           Si  tau(  41) = (   0.0850606   0.5790340   0.5785950  )
        42           Si  tau(  42) = (   0.0003001   0.3332070   0.6670290  )
        43           Si  tau(  43) = (   0.0838071   0.4162260   0.7502220  )
        44           Si  tau(  44) = (   0.1669290   0.4994220   0.6666800  )
        45           Si  tau(  45) = (   0.2521200   0.5816080   0.7495730  )
        46           Si  tau(  46) = (   0.1671170   0.3335950   0.8342470  )
        47           Si  tau(  47) = (   0.2517510   0.4156800   0.9173990  )
        48           Si  tau(  48) = (   0.9989730   0.4988390   0.8322480  )
        49           Si  tau(  49) = (   0.0862947   0.5796310   0.9130280  )
        50           Si  tau(  50) = (   0.0191385   0.6477640   0.0203414  )
        51           Si  tau(  51) = (   0.0859041   0.7561120   0.0870234  )
        52           Si  tau(  52) = (   0.1683320   0.8352940   0.0010426  )
        53           Si  tau(  53) = (   0.2510730   0.9180960   0.0849103  )
        54           Si  tau(  54) = (   0.1706830   0.6724860   0.1671470  )
        55           Si  tau(  55) = (   0.2526770   0.7519130   0.2538690  )
        56           Si  tau(  56) = (   0.9997130   0.8356140   0.1692070  )
        57           Si  tau(  57) = (   0.0837605   0.9184840   0.2515790  )
        58           Si  tau(  58) = (   0.9953120   0.6714550   0.3408810  )
        59           Si  tau(  59) = (   0.0839308   0.7536790   0.4195620  )
        60           Si  tau(  60) = (   0.1669640   0.8349350   0.3346400  )
[...]
       208           Si  tau( 208) = (   0.6651100   0.8333460   0.4997470  )
       209           Si  tau( 209) = (   0.7480170   0.9172930   0.5817790  )
       210           Si  tau( 210) = (   0.6659990   0.6667870   0.6684170  )
       211           Si  tau( 211) = (   0.7490920   0.7508170   0.7516110  )
       212           Si  tau( 212) = (   0.8300720   0.8333170   0.6650360  )
       213           Si  tau( 213) = (   0.9134270   0.9209280   0.7454010  )
       214           Si  tau( 214) = (   0.8321290   0.6620260   0.8313830  )
       215           Si  tau( 215) = (   0.9280790   0.7304660   0.9203910  )
       216           Si  tau( 216) = (   0.6646620   0.8337200   0.8343730  )
       217           Si  tau( 217) = (   0.7441480   0.9215770   0.9166980  )
       218           H   tau( 218) = (   0.8315190   0.7679290   0.9275620  )
       219           H   tau( 219) = (   0.9123630   0.7528690   0.7592440  )
       220           H   tau( 220) = (   0.5634900   0.2312530   0.6039870  )
       221           H   tau( 221) = (   0.0654737   0.6011660   0.3320410  )
       222           H   tau( 222) = (   0.0738596   0.5930250   0.0787669  )

   Crystallographic axes

     site n.     atom                  positions (cryst. coord.)
         1           Si  tau(   1) = (  0.9521410  0.8862020  0.9008560  )
         2           Si  tau(   2) = (  0.0020157  0.0108932  0.0094380  )
         3           Si  tau(   3) = (  0.0875243  0.0910237  0.0902606  )
         4           Si  tau(   4) = (  0.1683180  0.1687490  0.0002333  )
         5           Si  tau(   5) = (  0.2506020  0.2514440  0.0843103  )
         6           Si  tau(   6) = (  0.1679150  0.0011674  0.1687850  )
         7           Si  tau(   7) = (  0.2508950  0.0841747  0.2519780  )
         8           Si  tau(   8) = (  0.9989920  0.1698230  0.1699290  )
         9           Si  tau(   9) = (  0.0835007  0.2516120  0.2518470  )
        10           Si  tau(  10) = (  0.0000559  0.0010715  0.3347690  )
        11           Si  tau(  11) = (  0.0833689  0.0842828  0.4177320  )
        12           Si  tau(  12) = (  0.1665340  0.1673780  0.3341440  )
        13           Si  tau(  13) = (  0.2498330  0.2508200  0.4168150  )
        14           Si  tau(  14) = (  0.1665500  0.0005764  0.5006100  )
        15           Si  tau(  15) = (  0.2494680  0.0834647  0.5843790  )
        16           Si  tau(  16) = (  0.9995260  0.1667670  0.5011170  )
        17           Si  tau(  17) = (  0.0833448  0.2507170  0.5830490  )
        18           Si  tau(  18) = (  0.0020268  0.0028351  0.6668110  )
        19           Si  tau(  19) = (  0.0830923  0.0864837  0.7509330  )
        20           Si  tau(  20) = (  0.1667010  0.1679890  0.6667820  )
        21           Si  tau(  21) = (  0.2498670  0.2503420  0.7508230  )
        22           Si  tau(  22) = (  0.1660920  0.0024889  0.8328610  )
        23           Si  tau(  23) = (  0.2505680  0.0840142  0.9169610  )
        24           Si  tau(  24) = (  0.9994890  0.1685690  0.8343860  )
        25           Si  tau(  25) = (  0.0834366  0.2507580  0.9173760  )
        26           Si  tau(  26) = (  0.0000557  0.3333480  0.0006439  )
        27           Si  tau(  27) = (  0.0823853  0.4174080  0.0833128  )
[...]
     atom   44 type  1   force =     0.00000000    0.00000000    0.00000000
     atom   45 type  1   force =     0.00000000    0.00000000    0.00000000
     atom   46 type  1   force =     0.00000000    0.00000000    0.00000000
     atom   47 type  1   force =     0.00000000    0.00000000    0.00000000
     atom   48 type  1   force =     0.00000000    0.00000000    0.00000000
     atom   49 type  1   force =     0.00000000    0.00000000    0.00000000
     atom   50 type  1   force =     0.00000000    0.00000000    0.00000000
     atom   51 type  1   force =     0.00000000    0.00000000    0.00000000
     atom   52 type  1   force =     0.00000000    0.00000000    0.00000000
     atom   53 type  1   force =     0.00000000    0.00000000    0.00000000
     atom   54 type  1   force =     0.00000000    0.00000000    0.00000000
     atom   55 type  1   force =     0.00000000    0.00000000    0.00000000
     atom   56 type  1   force =     0.00000000    0.00000000    0.00000000
     atom   57 type  1   force =     0.00000000    0.00000000    0.00000000
     atom   58 type  1   force =     0.00000000    0.00000000    0.00000000
     atom   59 type  1   force =     0.00000000    0.00000000    0.00000000
     atom   60 type  1   force =     0.00000000    0.00000000    0.00000000
[...]
     atom  208 type  1   force =     0.00000000    0.00000000    0.00000000
     atom  209 type  1   force =     0.00000000    0.00000000    0.00000000
     atom  210 type  1   force =     0.00000000    0.00000000    0.00000000
     atom  211 type  1   force =     0.00000000    0.00000000    0.00000000
     atom  212 type  1   force =     0.00000000    0.00000000    0.00000000
     atom  213 type  1   force =     0.00000000    0.00000000    0.00000000
     atom  214 type  1   force =     0.00000000    0.00000000    0.00000000
     atom  215 type  1   force =     0.00000000    0.00000000    0.00000000
     atom  216 type  1   force =     0.00000000    0.00000000    0.00000000
     atom  217 type  1   force =     0.00000000    0.00000000    0.00000000
     atom  218 type  2   force =     0.00000000    0.00000000    0.00000000
     atom  219 type  2   force =     0.00000000    0.00000000    0.00000000
     atom  220 type  2   force =     0.00000000    0.00000000    0.00000000
     atom  221 type  2   force =     0.00000000    0.00000000    0.00000000
     atom  222 type  2   force =     0.00000000    0.00000000    0.00000000
     The Hubbard contrib.    to forces
     atom    1 type  1   force =     0.00000000    0.00000000    0.00000000
     atom    2 type  1   force =     0.00000000    0.00000000    0.00000000
     atom    3 type  1   force =     0.00000000    0.00000000    0.00000000
     atom    4 type  1   force =     0.00000000    0.00000000    0.00000000
     atom    5 type  1   force =     0.00000000    0.00000000    0.00000000
     atom    6 type  1   force =     0.00000000    0.00000000    0.00000000
     atom    7 type  1   force =     0.00000000    0.00000000    0.00000000
     atom    8 type  1   force =     0.00000000    0.00000000    0.00000000
     atom    9 type  1   force =     0.00000000    0.00000000    0.00000000
     atom   10 type  1   force =     0.00000000    0.00000000    0.00000000
     atom   11 type  1   force =     0.00000000    0.00000000    0.00000000
     atom   12 type  1   force =     0.00000000    0.00000000    0.00000000
     atom   13 type  1   force =     0.00000000    0.00000000    0.00000000
     atom   14 type  1   force =     0.00000000    0.00000000    0.00000000
     atom   15 type  1   force =     0.00000000    0.00000000    0.00000000
     atom   16 type  1   force =     0.00000000    0.00000000    0.00000000
     atom   17 type  1   force =     0.00000000    0.00000000    0.00000000
     atom   18 type  1   force =     0.00000000    0.00000000    0.00000000
     atom   19 type  1   force =     0.00000000    0.00000000    0.00000000
     atom   20 type  1   force =     0.00000000    0.00000000    0.00000000
     atom   21 type  1   force =     0.00000000    0.00000000    0.00000000
     atom   22 type  1   force =     0.00000000    0.00000000    0.00000000
     atom   23 type  1   force =     0.00000000    0.00000000    0.00000000
     atom   24 type  1   force =     0.00000000    0.00000000    0.00000000
     atom   25 type  1   force =     0.00000000    0.00000000    0.00000000
     atom   26 type  1   force =     0.00000000    0.00000000    0.00000000
     atom   27 type  1   force =     0.00000000    0.00000000    0.00000000
     atom   28 type  1   force =     0.00000000    0.00000000    0.00000000
     atom   29 type  1   force =     0.00000000    0.00000000    0.00000000
     atom   30 type  1   force =     0.00000000    0.00000000    0.00000000
     atom   31 type  1   force =     0.00000000    0.00000000    0.00000000
     atom   32 type  1   force =     0.00000000    0.00000000    0.00000000
     atom   33 type  1   force =     0.00000000    0.00000000    0.00000000
     atom   34 type  1   force =     0.00000000    0.00000000    0.00000000
     atom   35 type  1   force =     0.00000000    0.00000000    0.00000000
     atom   36 type  1   force =     0.00000000    0.00000000    0.00000000
     atom   37 type  1   force =     0.00000000    0.00000000    0.00000000
     atom   38 type  1   force =     0.00000000    0.00000000    0.00000000
     atom   39 type  1   force =     0.00000000    0.00000000    0.00000000
     atom   40 type  1   force =     0.00000000    0.00000000    0.00000000
     atom   41 type  1   force =     0.00000000    0.00000000    0.00000000
     atom   42 type  1   force =     0.00000000    0.00000000    0.00000000
     atom   43 type  1   force =     0.00000000    0.00000000    0.00000000
     atom   44 type  1   force =     0.00000000    0.00000000    0.00000000
     atom   45 type  1   force =     0.00000000    0.00000000    0.00000000
     atom   46 type  1   force =     0.00000000    0.00000000    0.00000000
     atom   47 type  1   force =     0.00000000    0.00000000    0.00000000
     atom   48 type  1   force =     0.00000000    0.00000000    0.00000000
     atom   49 type  1   force =     0.00000000    0.00000000    0.00000000
     atom   50 type  1   force =     0.00000000    0.00000000    0.00000000
     atom   51 type  1   force =     0.00000000    0.00000000    0.00000000
     atom   52 type  1   force =     0.00000000    0.00000000    0.00000000
     atom   53 type  1   force =     0.00000000    0.00000000    0.00000000
     atom   54 type  1   force =     0.00000000    0.00000000    0.00000000
     atom   55 type  1   force =     0.00000000    0.00000000    0.00000000
     atom   56 type  1   force =     0.00000000    0.00000000    0.00000000
     atom   57 type  1   force =     0.00000000    0.00000000    0.00000000
     atom   58 type  1   force =     0.00000000    0.00000000    0.00000000
     atom   59 type  1   force =     0.00000000    0.00000000    0.00000000
     atom   60 type  1   force =     0.00000000    0.00000000    0.00000000
[...]
     atom  208 type  1   force =     0.00000000    0.00000000    0.00000000
     atom  209 type  1   force =     0.00000000    0.00000000    0.00000000
     atom  210 type  1   force =     0.00000000    0.00000000    0.00000000
     atom  211 type  1   force =     0.00000000    0.00000000    0.00000000
     atom  212 type  1   force =     0.00000000    0.00000000    0.00000000
     atom  213 type  1   force =     0.00000000    0.00000000    0.00000000
     atom  214 type  1   force =     0.00000000    0.00000000    0.00000000
     atom  215 type  1   force =     0.00000000    0.00000000    0.00000000
     atom  216 type  1   force =     0.00000000    0.00000000    0.00000000
     atom  217 type  1   force =     0.00000000    0.00000000    0.00000000
     atom  218 type  2   force =     0.00000000    0.00000000    0.00000000
     atom  219 type  2   force =     0.00000000    0.00000000    0.00000000
     atom  220 type  2   force =     0.00000000    0.00000000    0.00000000
     atom  221 type  2   force =     0.00000000    0.00000000    0.00000000
     atom  222 type  2   force =     0.00000000    0.00000000    0.00000000
     The SCF correction term to forces
     atom    1 type  1   force =    -0.00000023   -0.00000173   -0.00000086
     atom    2 type  1   force =     0.00000001    0.00000072    0.00000137
     atom    3 type  1   force =     0.00000162   -0.00000077   -0.00000097
     atom    4 type  1   force =     0.00000414    0.00000225    0.00000107
     atom    5 type  1   force =     0.00000437    0.00000329    0.00000135
     atom    6 type  1   force =     0.00000442   -0.00000153    0.00000041
     atom    7 type  1   force =     0.00000300    0.00000002   -0.00000176
     atom    8 type  1   force =     0.00000024    0.00000249    0.00000082
     atom    9 type  1   force =     0.00000249    0.00000316    0.00000067
     atom   10 type  1   force =     0.00000133   -0.00000137    0.00000134
     atom   11 type  1   force =     0.00000114   -0.00000042    0.00000010
     atom   12 type  1   force =     0.00000198    0.00000288   -0.00000073
     atom   13 type  1   force =    -0.00000020    0.00000478   -0.00000151
     atom   14 type  1   force =     0.00000098   -0.00000309    0.00000066
     atom   15 type  1   force =    -0.00000106   -0.00000168    0.00000034
     atom   16 type  1   force =     0.00000164    0.00000182   -0.00000030
     atom   17 type  1   force =     0.00000199    0.00000403   -0.00000089
     atom   18 type  1   force =     0.00000111   -0.00000114   -0.00000195
     atom   19 type  1   force =     0.00000265    0.00000144   -0.00000205
     atom   20 type  1   force =     0.00000008    0.00000097    0.00000056
     atom   21 type  1   force =     0.00000098    0.00000457    0.00000113
     atom   22 type  1   force =     0.00000322   -0.00000211    0.00000078
     atom   23 type  1   force =     0.00000432    0.00000032    0.00000139
     atom   24 type  1   force =     0.00000036    0.00000125   -0.00000046
     atom   25 type  1   force =     0.00000335    0.00000172    0.00000026
     atom   26 type  1   force =     0.00000072    0.00000255    0.00000140
     atom   27 type  1   force =     0.00000381    0.00000237    0.00000193
     atom   28 type  1   force =     0.00000698    0.00000187    0.00000016
     atom   29 type  1   force =     0.00000717   -0.00000048    0.00000169
     atom   30 type  1   force =     0.00000550    0.00000258    0.00000148
     atom   31 type  1   force =     0.00000471    0.00000479    0.00000127
     atom   32 type  1   force =     0.00000063    0.00000245    0.00000305
     atom   33 type  1   force =     0.00000383   -0.00000059    0.00000324
     atom   34 type  1   force =     0.00000085    0.00000413    0.00000083
     atom   35 type  1   force =     0.00000321    0.00000549    0.00000146
     atom   36 type  1   force =     0.00000490    0.00000218    0.00000298
     atom   37 type  1   force =     0.00000372   -0.00000008    0.00000126
     atom   38 type  1   force =     0.00000104    0.00000643   -0.00000056
     atom   39 type  1   force =     0.00000151    0.00000734   -0.00000037
     atom   40 type  1   force =     0.00000189    0.00000330   -0.00000103
     atom   41 type  1   force =     0.00000301    0.00000103   -0.00000190
     atom   42 type  1   force =     0.00000172    0.00000493   -0.00000233
     atom   43 type  1   force =     0.00000306    0.00000378   -0.00000324
     atom   44 type  1   force =     0.00000475    0.00000323   -0.00000338
     atom   45 type  1   force =     0.00000619    0.00000092   -0.00000274
     atom   46 type  1   force =     0.00000505    0.00000310   -0.00000077
     atom   47 type  1   force =     0.00000628    0.00000442    0.00000040
     atom   48 type  1   force =     0.00000222    0.00000034   -0.00000300
     atom   49 type  1   force =     0.00000615   -0.00000162   -0.00000125
     atom   50 type  1   force =    -0.00000016   -0.00000015    0.00000083
     atom   51 type  1   force =     0.00000512   -0.00000254    0.00000298
     atom   52 type  1   force =     0.00000599   -0.00000301    0.00000127
     atom   53 type  1   force =     0.00000588   -0.00000274    0.00000056
     atom   54 type  1   force =     0.00000531   -0.00000321    0.00000150
     atom   55 type  1   force =     0.00000615   -0.00000523    0.00000139
     atom   56 type  1   force =     0.00000078   -0.00000268    0.00000125
     atom   57 type  1   force =     0.00000262   -0.00000238    0.00000099
     atom   58 type  1   force =     0.00000024   -0.00000308    0.00000336
     atom   59 type  1   force =     0.00000323   -0.00000486    0.00000225
     atom   60 type  1   force =     0.00000436   -0.00000529    0.00000253
[...]
     atom  208 type  1   force =    -0.00000260   -0.00000891   -0.00000014
     atom  209 type  1   force =    -0.00000174   -0.00000739   -0.00000048
     atom  210 type  1   force =    -0.00000624   -0.00000323   -0.00000207
     atom  211 type  1   force =    -0.00000644   -0.00000582   -0.00000075
     atom  212 type  1   force =    -0.00000296   -0.00000482   -0.00000276
     atom  213 type  1   force =    -0.00000069   -0.00000320   -0.00000096
     atom  214 type  1   force =    -0.00000750   -0.00000246   -0.00000128
     atom  215 type  1   force =    -0.00000375   -0.00000351    0.00000192
     atom  216 type  1   force =    -0.00000505   -0.00000541    0.00000119
     atom  217 type  1   force =    -0.00000412   -0.00000392    0.00000217
     atom  218 type  2   force =    -0.00000161   -0.00000051    0.00000086
     atom  219 type  2   force =    -0.00000130   -0.00000107   -0.00000150
     atom  220 type  2   force =    -0.00000065    0.00000116    0.00000080
     atom  221 type  2   force =     0.00000085   -0.00000041    0.00000036
     atom  222 type  2   force =     0.00000165   -0.00000058    0.00000186

     Total force =     0.070086     Total SCF correction =     0.000087

     Computing stress (Cartesian axis) and pressure

          total   stress  (Ry/bohr**3)                   (kbar)     P=   14.93
   0.00009386  -0.00000458  -0.00000211         13.81     -0.67     -0.31
  -0.00000458   0.00010422   0.00001829         -0.67     15.33      2.69
  -0.00000211   0.00001829   0.00010630         -0.31      2.69     15.64

     kinetic stress (kbar)   2292.93      0.59      0.98
                                0.59   2294.24      1.22
                                0.98      1.22   2294.28

     local   stress (kbar)  -1210.68      1.17      2.68
                                1.17  -1216.90    -11.32
                                2.68    -11.32  -1216.96

     nonloc. stress (kbar)   2599.39      1.50      0.58
                                1.50   2597.48     -0.05
                                0.58     -0.05   2597.54

     hartree stress (kbar)    199.34     -1.11     -0.88
                               -1.11    204.68      3.82
                               -0.88      3.82    204.29

     exc-cor stress (kbar)   -811.22     -0.05     -0.01
                               -0.05   -811.22      0.02
                               -0.01      0.02   -811.22

     corecor stress (kbar)      0.00      0.00      0.00
                                0.00      0.00      0.00
                                0.00      0.00      0.00

     ewald   stress (kbar)  -3055.94     -2.78     -3.65
                               -2.78  -3052.95      9.01
                               -3.65      9.01  -3052.30

     hubbard stress (kbar)      0.00      0.00      0.00
                                0.00      0.00      0.00
                                0.00      0.00      0.00

     london  stress (kbar)      0.00      0.00      0.00
                                0.00      0.00      0.00
                                0.00      0.00      0.00

     DFT-D3  stress (kbar)      0.00      0.00      0.00
                                0.00      0.00      0.00
                                0.00      0.00      0.00

     XDM     stress (kbar)      0.00      0.00      0.00
                                0.00      0.00      0.00
                                0.00      0.00      0.00

     dft-nl  stress (kbar)      0.00      0.00      0.00
                                0.00      0.00      0.00
                                0.00      0.00      0.00

     TS-vdW  stress (kbar)      0.00      0.00      0.00
                                0.00      0.00      0.00
                                0.00      0.00      0.00

     Writing output data file interstitial_optimize3.save

     General routines

     Parallel routines

   This run was terminated on:  12: 3:42   7Nov2020

   JOB DONE.