     Program PWSCF v.6.2 (svn rev. 14038) starts on  7Nov2020 at  8:23:43

     R & G space division:  proc/nbgrp/npool/nimage =       8
     Waiting for input...
     Reading input from standard input
Warning: card &IONS ignored
Warning: card / ignored

     Current dimensions of program PWSCF are:
     Max number of different atomic species (ntypx) = 10
     Max number of k-points (npk) =  40000
     Max angular momentum in pseudopotentials (lmaxx) =  3

     Subspace diagonalization in iterative solution of the eigenvalue problem:
     a serial algorithm will be used

     bravais-lattice index     =            0
     lattice parameter (alat)  =      20.6245  a.u.
     unit-cell volume          =    8773.0332 (a.u.)^3
     number of atoms/cell      =           72
     number of atomic types    =            2
     number of electrons       =       264.00
     number of Kohn-Sham states=          158
     kinetic-energy cutoff     =      42.0000  Ry
     charge density cutoff     =     168.0000  Ry
     convergence threshold     =      1.0E-08
     mixing beta               =       0.3000
     number of iterations used =            8  plain     mixing
     Exchange-correlation      = SLA-PW-PBX-PBC ( 1  4  3  4 0 0)

     celldm(1)=  20.624492  celldm(2)=   0.000000  celldm(3)=   0.000000
     celldm(4)=   0.000000  celldm(5)=   0.000000  celldm(6)=   0.000000

     crystal axes: (cart. coord. in units of alat)
               a(1) = (   1.000000   0.000000   0.000000 )
               a(2) = (   0.000000   1.000000   0.000000 )
               a(3) = (   0.000000   0.000000   1.000000 )

     reciprocal axes: (cart. coord. in units 2 pi/alat)
               b(1) = (  1.000000  0.000000  0.000000 )
               b(2) = (  0.000000  1.000000  0.000000 )
               b(3) = (  0.000000  0.000000  1.000000 )

     PseudoPot. # 1 for Si read from file:
     ./Si.pbe-hgh.UPF
     MD5 check sum: 9a9f0f6e09139bfdb36b03ff6bc35900
     Pseudo is Norm-conserving, Zval =  4.0
     Generated in analytical, separable form
     Using radial grid of 1141 points,  3 beta functions with:
                l(1) =   0
                l(2) =   0
                l(3) =   1

     PseudoPot. # 2 for H  read from file:
     ./H.pbe-hgh.UPF
     MD5 check sum: 5f350582108a937bec95f27f5610ab08
     Pseudo is Norm-conserving, Zval =  1.0
     Generated in analytical, separable form
     Using radial grid of  929 points,  0 beta functions with:

     atomic species   valence    mass     pseudopotential
        Si             4.00    28.08000     Si( 1.00)
        H              1.00     1.00784     H ( 1.00)

     No symmetry found

                                    s                        frac. trans.

      isym =  1     identity

 cryst.   s( 1) = (     1          0          0      )
                  (     0          1          0      )
                  (     0          0          1      )

 cart.    s( 1) = (  1.0000000  0.0000000  0.0000000 )
                  (  0.0000000  1.0000000  0.0000000 )
                  (  0.0000000  0.0000000  1.0000000 )

   Cartesian axes

     site n.     atom                  positions (alat units)
         1           Si  tau(   1) = (   0.9001930   0.4391160   0.1564500  )
         2           Si  tau(   2) = (   0.5892230   0.2009210   0.9233330  )
         3           Si  tau(   3) = (   0.7002580   0.7037350   0.5752770  )
         4           Si  tau(   4) = (   0.1974090   0.6689700   0.6456800  )
         5           Si  tau(   5) = (   0.7167580   0.9270390   0.0827543  )
         6           Si  tau(   6) = (   0.1847560   0.8764980   0.7185130  )
         7           Si  tau(   7) = (   0.0912775   0.3030330   0.6891040  )
         8           Si  tau(   8) = (   0.5302150   0.4922730   0.3300870  )
         9           Si  tau(   9) = (   0.0400789   0.6004090   0.1666090  )
        10           Si  tau(  10) = (   0.3002990   0.9312260   0.4405720  )
        11           Si  tau(  11) = (   0.0013330   0.3158170   0.4965470  )
        12           Si  tau(  12) = (   0.1581040   0.8700700   0.2880630  )
        13           Si  tau(  13) = (   0.4420380   0.3866360   0.6578710  )
        14           Si  tau(  14) = (  -0.0008349   0.4650230   0.8033910  )
        15           Si  tau(  15) = (   0.3693150   0.0749614   0.5889740  )
        16           Si  tau(  16) = (   0.1818310   0.5758890   0.8328060  )
        17           Si  tau(  17) = (   0.5501410   0.7319220   0.8527030  )
        18           Si  tau(  18) = (   0.7999610   0.3689860   0.4574070  )
        19           Si  tau(  19) = (   0.5241200   0.2837850   0.2558100  )
        20           Si  tau(  20) = (   0.4387780   0.9408710   0.2724030  )
        21           Si  tau(  21) = (   0.8708930   0.2239430   0.1857260  )
        22           Si  tau(  22) = (   0.0137258   0.7557080   0.0195987  )
        23           Si  tau(  23) = (   0.7143320   0.2167190   0.3304480  )
        24           Si  tau(  24) = (   0.8348020   0.4269660   0.9491840  )
        25           Si  tau(  25) = (   0.0238752   0.0473137   0.2455510  )
        26           Si  tau(  26) = (   0.8697880   0.5931320   0.6777590  )
        27           Si  tau(  27) = (   0.1972110   0.7775470   0.9094050  )
        28           Si  tau(  28) = (   0.7121500   0.6192940   0.9488990  )
        29           Si  tau(  29) = (   0.5390630   0.3667740   0.0550219  )
        30           Si  tau(  30) = (   0.3569580   0.6388370   0.5139440  )
        31           Si  tau(  31) = (   0.7014970   0.7216420   0.1394920  )
        32           Si  tau(  32) = (   0.1163730   0.1624870   0.8512510  )
        33           Si  tau(  33) = (   0.6199730   0.8679570   0.3752100  )
        34           Si  tau(  34) = (   0.4324860   0.0502501   0.9629230  )
        35           Si  tau(  35) = (   0.7250460   0.4244810   0.6469900  )
        36           Si  tau(  36) = (   0.2808690   0.2700160   0.5737350  )
        37           Si  tau(  37) = (   0.1643560   0.2815960   0.0268257  )
        38           Si  tau(  38) = (   0.9309710   0.0627512   0.9015410  )
        39           Si  tau(  39) = (   0.3691240   0.4803640   0.8337300  )
        40           Si  tau(  40) = (   0.7581460   0.5152170   0.3065130  )
        41           Si  tau(  41) = (   0.1875970   0.3282960   0.3861010  )
        42           Si  tau(  42) = (   0.8770170   0.7211450   0.8574470  )
        43           Si  tau(  43) = (   0.5502400   0.5432100   0.5470020  )
        44           Si  tau(  44) = (   0.6025910   0.2571910   0.7191620  )
        45           Si  tau(  45) = (   0.6471110   0.8718100   0.7129820  )
        46           Si  tau(  46) = (   0.3025160   0.5089410   0.3517730  )
        47           Si  tau(  47) = (   0.7976340   0.2088730   0.9792570  )
        48           Si  tau(  48) = (   0.3945400   0.1214980   0.1727820  )
        49           Si  tau(  49) = (   0.0119188   0.6907460   0.5476870  )
        50           Si  tau(  50) = (   0.9334300   0.0205868   0.4461990  )
        51           Si  tau(  51) = (   0.3336920   0.7781300   0.1674830  )
        52           Si  tau(  52) = (   0.9305410   0.9431270   0.0806136  )
        53           Si  tau(  53) = (   0.0074123   0.7211830   0.3389770  )
        54           Si  tau(  54) = (   0.2502640   0.5794510   0.1603770  )
        55           Si  tau(  55) = (   0.5836000   0.0639229   0.6223170  )
        56           Si  tau(  56) = (   0.8515940   0.9143960   0.7673600  )
        57           Si  tau(  57) = (   0.5203450   0.6966850   0.2484760  )
        58           Si  tau(  58) = (   0.1917990   0.1862820   0.2173910  )
        59           Si  tau(  59) = (   0.2916070   0.0506412   0.7915710  )
        60           Si  tau(  60) = (   0.7879150   0.7206850   0.3628500  )
        61           Si  tau(  61) = (   0.7163510   0.0446384   0.4517990  )
        62           Si  tau(  62) = (   0.3988730   0.8313810   0.9709130  )
        63           Si  tau(  63) = (   0.3268610   0.4237750   0.0322761  )
        64           Si  tau(  64) = (   0.9979290   0.9005960   0.6122460  )
        65           H   tau(  65) = (   0.0506936   0.3608940   0.0477671  )
        66           H   tau(  66) = (   0.4624990   0.5995140   0.8370720  )
        67           H   tau(  67) = (   0.5413210   0.8365740   0.4845600  )
        68           H   tau(  68) = (   0.3503270   0.7929620   0.4763040  )
        69           H   tau(  69) = (   0.9733970   0.1640080   0.4813790  )
        70           H   tau(  70) = (   0.5785700   0.4995270   0.0070563  )
        71           H   tau(  71) = (   0.6809600   0.3875460   0.0805911  )
        72           H   tau(  72) = (   0.6875530   0.0111819   0.1886180  )

   Crystallographic axes

     site n.     atom                  positions (cryst. coord.)
         1           Si  tau(   1) = (  0.9001930  0.4391160  0.1564500  )
         2           Si  tau(   2) = (  0.5892230  0.2009210  0.9233330  )
         3           Si  tau(   3) = (  0.7002580  0.7037350  0.5752770  )
         4           Si  tau(   4) = (  0.1974090  0.6689700  0.6456800  )
         5           Si  tau(   5) = (  0.7167580  0.9270390  0.0827543  )
         6           Si  tau(   6) = (  0.1847560  0.8764980  0.7185130  )
         7           Si  tau(   7) = (  0.0912775  0.3030330  0.6891040  )
         8           Si  tau(   8) = (  0.5302150  0.4922730  0.3300870  )
         9           Si  tau(   9) = (  0.0400789  0.6004090  0.1666090  )
        10           Si  tau(  10) = (  0.3002990  0.9312260  0.4405720  )
        11           Si  tau(  11) = (  0.0013330  0.3158170  0.4965470  )
        12           Si  tau(  12) = (  0.1581040  0.8700700  0.2880630  )
        13           Si  tau(  13) = (  0.4420380  0.3866360  0.6578710  )
        14           Si  tau(  14) = ( -0.0008349  0.4650230  0.8033910  )
        15           Si  tau(  15) = (  0.3693150  0.0749614  0.5889740  )
        16           Si  tau(  16) = (  0.1818310  0.5758890  0.8328060  )
        17           Si  tau(  17) = (  0.5501410  0.7319220  0.8527030  )
        18           Si  tau(  18) = (  0.7999610  0.3689860  0.4574070  )
        19           Si  tau(  19) = (  0.5241200  0.2837850  0.2558100  )
        20           Si  tau(  20) = (  0.4387780  0.9408710  0.2724030  )
        21           Si  tau(  21) = (  0.8708930  0.2239430  0.1857260  )
        22           Si  tau(  22) = (  0.0137258  0.7557080  0.0195987  )
        23           Si  tau(  23) = (  0.7143320  0.2167190  0.3304480  )
        24           Si  tau(  24) = (  0.8348020  0.4269660  0.9491840  )
        25           Si  tau(  25) = (  0.0238752  0.0473137  0.2455510  )
        26           Si  tau(  26) = (  0.8697880  0.5931320  0.6777590  )
        27           Si  tau(  27) = (  0.1972110  0.7775470  0.9094050  )
        28           Si  tau(  28) = (  0.7121500  0.6192940  0.9488990  )
        29           Si  tau(  29) = (  0.5390630  0.3667740  0.0550219  )
        30           Si  tau(  30) = (  0.3569580  0.6388370  0.5139440  )
[...]
     atom   35 type  1   force =     0.00000000    0.00000000    0.00000000
     atom   36 type  1   force =     0.00000000    0.00000000    0.00000000
     atom   37 type  1   force =     0.00000000    0.00000000    0.00000000
     atom   38 type  1   force =     0.00000000    0.00000000    0.00000000
     atom   39 type  1   force =     0.00000000    0.00000000    0.00000000
     atom   40 type  1   force =     0.00000000    0.00000000    0.00000000
     atom   41 type  1   force =     0.00000000    0.00000000    0.00000000
     atom   42 type  1   force =     0.00000000    0.00000000    0.00000000
     atom   43 type  1   force =     0.00000000    0.00000000    0.00000000
     atom   44 type  1   force =     0.00000000    0.00000000    0.00000000
     atom   45 type  1   force =     0.00000000    0.00000000    0.00000000
     atom   46 type  1   force =     0.00000000    0.00000000    0.00000000
     atom   47 type  1   force =     0.00000000    0.00000000    0.00000000
     atom   48 type  1   force =     0.00000000    0.00000000    0.00000000
     atom   49 type  1   force =     0.00000000    0.00000000    0.00000000
     atom   50 type  1   force =     0.00000000    0.00000000    0.00000000
     atom   51 type  1   force =     0.00000000    0.00000000    0.00000000
     atom   52 type  1   force =     0.00000000    0.00000000    0.00000000
     atom   53 type  1   force =     0.00000000    0.00000000    0.00000000
     atom   54 type  1   force =     0.00000000    0.00000000    0.00000000
     atom   55 type  1   force =     0.00000000    0.00000000    0.00000000
     atom   56 type  1   force =     0.00000000    0.00000000    0.00000000
     atom   57 type  1   force =     0.00000000    0.00000000    0.00000000
     atom   58 type  1   force =     0.00000000    0.00000000    0.00000000
     atom   59 type  1   force =     0.00000000    0.00000000    0.00000000
     atom   60 type  1   force =     0.00000000    0.00000000    0.00000000
     atom   61 type  1   force =     0.00000000    0.00000000    0.00000000
     atom   62 type  1   force =     0.00000000    0.00000000    0.00000000
     atom   63 type  1   force =     0.00000000    0.00000000    0.00000000
     atom   64 type  1   force =     0.00000000    0.00000000    0.00000000
     atom   65 type  2   force =     0.00000000    0.00000000    0.00000000
     atom   66 type  2   force =     0.00000000    0.00000000    0.00000000
     atom   67 type  2   force =     0.00000000    0.00000000    0.00000000
     atom   68 type  2   force =     0.00000000    0.00000000    0.00000000
     atom   69 type  2   force =     0.00000000    0.00000000    0.00000000
     atom   70 type  2   force =     0.00000000    0.00000000    0.00000000
     atom   71 type  2   force =     0.00000000    0.00000000    0.00000000
     atom   72 type  2   force =     0.00000000    0.00000000    0.00000000
     The Hubbard contrib.    to forces
     atom    1 type  1   force =     0.00000000    0.00000000    0.00000000
     atom    2 type  1   force =     0.00000000    0.00000000    0.00000000
     atom    3 type  1   force =     0.00000000    0.00000000    0.00000000
     atom    4 type  1   force =     0.00000000    0.00000000    0.00000000
     atom    5 type  1   force =     0.00000000    0.00000000    0.00000000
     atom    6 type  1   force =     0.00000000    0.00000000    0.00000000
     atom    7 type  1   force =     0.00000000    0.00000000    0.00000000
     atom    8 type  1   force =     0.00000000    0.00000000    0.00000000
     atom    9 type  1   force =     0.00000000    0.00000000    0.00000000
     atom   10 type  1   force =     0.00000000    0.00000000    0.00000000
     atom   11 type  1   force =     0.00000000    0.00000000    0.00000000
     atom   12 type  1   force =     0.00000000    0.00000000    0.00000000
     atom   13 type  1   force =     0.00000000    0.00000000    0.00000000
     atom   14 type  1   force =     0.00000000    0.00000000    0.00000000
     atom   15 type  1   force =     0.00000000    0.00000000    0.00000000
     atom   16 type  1   force =     0.00000000    0.00000000    0.00000000
     atom   17 type  1   force =     0.00000000    0.00000000    0.00000000
     atom   18 type  1   force =     0.00000000    0.00000000    0.00000000
     atom   19 type  1   force =     0.00000000    0.00000000    0.00000000
     atom   20 type  1   force =     0.00000000    0.00000000    0.00000000
     atom   21 type  1   force =     0.00000000    0.00000000    0.00000000
     atom   22 type  1   force =     0.00000000    0.00000000    0.00000000
     atom   23 type  1   force =     0.00000000    0.00000000    0.00000000
     atom   24 type  1   force =     0.00000000    0.00000000    0.00000000
     atom   25 type  1   force =     0.00000000    0.00000000    0.00000000
     atom   26 type  1   force =     0.00000000    0.00000000    0.00000000
     atom   27 type  1   force =     0.00000000    0.00000000    0.00000000
     atom   28 type  1   force =     0.00000000    0.00000000    0.00000000
     atom   29 type  1   force =     0.00000000    0.00000000    0.00000000
     atom   30 type  1   force =     0.00000000    0.00000000    0.00000000
     atom   31 type  1   force =     0.00000000    0.00000000    0.00000000
     atom   32 type  1   force =     0.00000000    0.00000000    0.00000000
     atom   33 type  1   force =     0.00000000    0.00000000    0.00000000
     atom   34 type  1   force =     0.00000000    0.00000000    0.00000000
     atom   35 type  1   force =     0.00000000    0.00000000    0.00000000
     atom   36 type  1   force =     0.00000000    0.00000000    0.00000000
     atom   37 type  1   force =     0.00000000    0.00000000    0.00000000
     atom   38 type  1   force =     0.00000000    0.00000000    0.00000000
     atom   39 type  1   force =     0.00000000    0.00000000    0.00000000
     atom   40 type  1   force =     0.00000000    0.00000000    0.00000000
     atom   41 type  1   force =     0.00000000    0.00000000    0.00000000
     atom   42 type  1   force =     0.00000000    0.00000000    0.00000000
     atom   43 type  1   force =     0.00000000    0.00000000    0.00000000
     atom   44 type  1   force =     0.00000000    0.00000000    0.00000000
     atom   45 type  1   force =     0.00000000    0.00000000    0.00000000
     atom   46 type  1   force =     0.00000000    0.00000000    0.00000000
     atom   47 type  1   force =     0.00000000    0.00000000    0.00000000
     atom   48 type  1   force =     0.00000000    0.00000000    0.00000000
     atom   49 type  1   force =     0.00000000    0.00000000    0.00000000
     atom   50 type  1   force =     0.00000000    0.00000000    0.00000000
     atom   51 type  1   force =     0.00000000    0.00000000    0.00000000
     atom   52 type  1   force =     0.00000000    0.00000000    0.00000000
     atom   53 type  1   force =     0.00000000    0.00000000    0.00000000
     atom   54 type  1   force =     0.00000000    0.00000000    0.00000000
     atom   55 type  1   force =     0.00000000    0.00000000    0.00000000
     atom   56 type  1   force =     0.00000000    0.00000000    0.00000000
     atom   57 type  1   force =     0.00000000    0.00000000    0.00000000
     atom   58 type  1   force =     0.00000000    0.00000000    0.00000000
     atom   59 type  1   force =     0.00000000    0.00000000    0.00000000
     atom   60 type  1   force =     0.00000000    0.00000000    0.00000000
     atom   61 type  1   force =     0.00000000    0.00000000    0.00000000
     atom   62 type  1   force =     0.00000000    0.00000000    0.00000000
     atom   63 type  1   force =     0.00000000    0.00000000    0.00000000
     atom   64 type  1   force =     0.00000000    0.00000000    0.00000000
     atom   65 type  2   force =     0.00000000    0.00000000    0.00000000
     atom   66 type  2   force =     0.00000000    0.00000000    0.00000000
     atom   67 type  2   force =     0.00000000    0.00000000    0.00000000
     atom   68 type  2   force =     0.00000000    0.00000000    0.00000000
     atom   69 type  2   force =     0.00000000    0.00000000    0.00000000
     atom   70 type  2   force =     0.00000000    0.00000000    0.00000000
     atom   71 type  2   force =     0.00000000    0.00000000    0.00000000
     atom   72 type  2   force =     0.00000000    0.00000000    0.00000000
     The SCF correction term to forces
     atom    1 type  1   force =     0.00001186   -0.00000581    0.00000990
     atom    2 type  1   force =     0.00000321    0.00001488   -0.00000080
     atom    3 type  1   force =     0.00001434   -0.00001303   -0.00000284
     atom    4 type  1   force =    -0.00001647   -0.00001486   -0.00000773
     atom    5 type  1   force =     0.00001541    0.00000687    0.00000798
     atom    6 type  1   force =    -0.00001193   -0.00000006   -0.00000906
     atom    7 type  1   force =    -0.00000533    0.00000928   -0.00001213
     atom    8 type  1   force =    -0.00000373   -0.00001669    0.00000282
     atom    9 type  1   force =     0.00000358   -0.00001550    0.00000946
     atom   10 type  1   force =    -0.00001788    0.00000682   -0.00000071
     atom   11 type  1   force =     0.00000590    0.00000497   -0.00000291
     atom   12 type  1   force =    -0.00001270    0.00000134    0.00000581
     atom   13 type  1   force =    -0.00000869   -0.00000285   -0.00000816
     atom   14 type  1   force =     0.00000510   -0.00000463   -0.00000945
     atom   15 type  1   force =    -0.00001400    0.00001661   -0.00000676
     atom   16 type  1   force =    -0.00001424   -0.00001364   -0.00000496
     atom   17 type  1   force =    -0.00000266   -0.00000969   -0.00000633
     atom   18 type  1   force =     0.00001747   -0.00000222   -0.00000011
     atom   19 type  1   force =    -0.00000321    0.00001052    0.00000875
     atom   20 type  1   force =    -0.00001305    0.00001004    0.00000762
     atom   21 type  1   force =     0.00001579    0.00001320    0.00001057
     atom   22 type  1   force =     0.00000531   -0.00001098    0.00000355
     atom   23 type  1   force =     0.00001355    0.00001561    0.00000594
     atom   24 type  1   force =     0.00001255   -0.00000356    0.00000073
     atom   25 type  1   force =     0.00000411    0.00001338    0.00000784
     atom   26 type  1   force =     0.00001685   -0.00001453   -0.00000801
     atom   27 type  1   force =    -0.00001202   -0.00001107   -0.00000002
     atom   28 type  1   force =     0.00001636   -0.00001882    0.00000142
     atom   29 type  1   force =    -0.00000225    0.00000130    0.00000532
     atom   30 type  1   force =    -0.00001707   -0.00001762   -0.00000355
     atom   31 type  1   force =     0.00001384   -0.00001520    0.00000502
     atom   32 type  1   force =    -0.00000432    0.00001509   -0.00000512
     atom   33 type  1   force =     0.00000747    0.00000295    0.00000768
     atom   34 type  1   force =    -0.00001110    0.00001584   -0.00000156
     atom   35 type  1   force =     0.00001411   -0.00000752   -0.00000934
     atom   36 type  1   force =    -0.00001651    0.00000919   -0.00000766
     atom   37 type  1   force =    -0.00000653    0.00000880    0.00000796
     atom   38 type  1   force =     0.00000908    0.00001405   -0.00000289
     atom   39 type  1   force =    -0.00001466   -0.00001093   -0.00000164
     atom   40 type  1   force =     0.00001682   -0.00001750    0.00000425
     atom   41 type  1   force =    -0.00001340    0.00000637    0.00000233
     atom   42 type  1   force =     0.00001606   -0.00001428   -0.00000438
     atom   43 type  1   force =     0.00000054   -0.00001603   -0.00000410
     atom   44 type  1   force =     0.00000664    0.00000931   -0.00000902
     atom   45 type  1   force =     0.00000831    0.00000178   -0.00000754
     atom   46 type  1   force =    -0.00001826   -0.00001557    0.00000029
     atom   47 type  1   force =     0.00001384    0.00001493    0.00000107
     atom   48 type  1   force =    -0.00001421    0.00001947    0.00000884
     atom   49 type  1   force =     0.00000338   -0.00001365   -0.00000348
     atom   50 type  1   force =     0.00000991    0.00001339    0.00000177
     atom   51 type  1   force =    -0.00001972   -0.00001161    0.00000643
     atom   52 type  1   force =     0.00001381    0.00000675    0.00000791
     atom   53 type  1   force =     0.00000600   -0.00001149    0.00000430
     atom   54 type  1   force =    -0.00001643   -0.00001527    0.00001058
     atom   55 type  1   force =     0.00000553    0.00001575   -0.00000653
     atom   56 type  1   force =     0.00001619    0.00000428   -0.00000999
     atom   57 type  1   force =    -0.00000542   -0.00001775    0.00000523
     atom   58 type  1   force =    -0.00001236    0.00001596    0.00000773
     atom   59 type  1   force =    -0.00001411    0.00001453   -0.00000550
     atom   60 type  1   force =     0.00001964   -0.00001240    0.00000615
     atom   61 type  1   force =     0.00001559    0.00001542    0.00000262
     atom   62 type  1   force =    -0.00001533   -0.00000400   -0.00000172
     atom   63 type  1   force =    -0.00001418   -0.00000733    0.00000583
     atom   64 type  1   force =     0.00000205    0.00000391   -0.00000877
     atom   65 type  2   force =     0.00000006    0.00000032    0.00000255
     atom   66 type  2   force =    -0.00000232   -0.00000365   -0.00000094
     atom   67 type  2   force =    -0.00000025   -0.00000008    0.00000090
     atom   68 type  2   force =    -0.00000485   -0.00000134   -0.00000043
     atom   69 type  2   force =     0.00000151    0.00000438   -0.00000057
     atom   70 type  2   force =     0.00000001   -0.00000379    0.00000096
     atom   71 type  2   force =     0.00000273   -0.00000047    0.00000171
     atom   72 type  2   force =     0.00000339    0.00000431    0.00000336

     Total force =     0.116389     Total SCF correction =     0.000148

     Computing stress (Cartesian axis) and pressure

          total   stress  (Ry/bohr**3)                   (kbar)     P=   13.15
   0.00005019  -0.00005700   0.00003256          7.38     -8.39      4.79
  -0.00005700   0.00007044  -0.00009897         -8.39     10.36    -14.56
   0.00003256  -0.00009897   0.00014759          4.79    -14.56     21.71

     kinetic stress (kbar)   2329.56    -13.87      3.98
                              -13.87   2322.51    -14.57
                                3.98    -14.57   2354.76

     local   stress (kbar)  -1428.93    -28.48     19.13
                              -28.48  -1209.41     27.37
                               19.13     27.37  -1282.25

     nonloc. stress (kbar)   2555.17      4.17     -8.53
                                4.17   2542.91      2.00
                               -8.53      2.00   2556.85

     hartree stress (kbar)    293.10      0.52      3.78
                                0.52    208.05    -11.79
                                3.78    -11.79    252.55

     exc-cor stress (kbar)   -819.33      0.20     -0.08
                                0.20   -819.27     -0.17
                               -0.08     -0.17   -820.12

     corecor stress (kbar)      0.00      0.00      0.00
                                0.00      0.00      0.00
                                0.00      0.00      0.00

     ewald   stress (kbar)  -2922.18     29.06    -13.49
                               29.06  -3034.43    -17.41
                              -13.49    -17.41  -3040.08

     hubbard stress (kbar)      0.00      0.00      0.00
                                0.00      0.00      0.00
                                0.00      0.00      0.00

     london  stress (kbar)      0.00      0.00      0.00
                                0.00      0.00      0.00
                                0.00      0.00      0.00

     DFT-D3  stress (kbar)      0.00      0.00      0.00
                                0.00      0.00      0.00
                                0.00      0.00      0.00

     XDM     stress (kbar)      0.00      0.00      0.00
                                0.00      0.00      0.00
                                0.00      0.00      0.00

     dft-nl  stress (kbar)      0.00      0.00      0.00
                                0.00      0.00      0.00
                                0.00      0.00      0.00

     TS-vdW  stress (kbar)      0.00      0.00      0.00
                                0.00      0.00      0.00
                                0.00      0.00      0.00

     Writing output data file liquid_optimize5.save

     General routines

     Parallel routines

   This run was terminated on:   8:38: 6   7Nov2020

   JOB DONE.