     Program PWSCF v.6.2 (svn rev. 14038) starts on  7Nov2020 at  8:32:24

     R & G space division:  proc/nbgrp/npool/nimage =       8
     Waiting for input...
     Reading input from standard input
Warning: card &IONS ignored
Warning: card / ignored

     Current dimensions of program PWSCF are:
     Max number of different atomic species (ntypx) = 10
     Max number of k-points (npk) =  40000
     Max angular momentum in pseudopotentials (lmaxx) =  3

     Subspace diagonalization in iterative solution of the eigenvalue problem:
     a serial algorithm will be used

     bravais-lattice index     =            0
     lattice parameter (alat)  =      20.6245  a.u.
     unit-cell volume          =    8773.0332 (a.u.)^3
     number of atoms/cell      =           72
     number of atomic types    =            2
     number of electrons       =       264.00
     number of Kohn-Sham states=          158
     kinetic-energy cutoff     =      42.0000  Ry
     charge density cutoff     =     168.0000  Ry
     convergence threshold     =      1.0E-08
     mixing beta               =       0.3000
     number of iterations used =            8  plain     mixing
     Exchange-correlation      = SLA-PW-PBX-PBC ( 1  4  3  4 0 0)

     celldm(1)=  20.624492  celldm(2)=   0.000000  celldm(3)=   0.000000
     celldm(4)=   0.000000  celldm(5)=   0.000000  celldm(6)=   0.000000

     crystal axes: (cart. coord. in units of alat)
               a(1) = (   1.000000   0.000000   0.000000 )
               a(2) = (   0.000000   1.000000   0.000000 )
               a(3) = (   0.000000   0.000000   1.000000 )

     reciprocal axes: (cart. coord. in units 2 pi/alat)
               b(1) = (  1.000000  0.000000  0.000000 )
               b(2) = (  0.000000  1.000000  0.000000 )
               b(3) = (  0.000000  0.000000  1.000000 )

     PseudoPot. # 1 for Si read from file:
     ./Si.pbe-hgh.UPF
     MD5 check sum: 9a9f0f6e09139bfdb36b03ff6bc35900
     Pseudo is Norm-conserving, Zval =  4.0
     Generated in analytical, separable form
     Using radial grid of 1141 points,  3 beta functions with:
                l(1) =   0
                l(2) =   0
                l(3) =   1

     PseudoPot. # 2 for H  read from file:
     ./H.pbe-hgh.UPF
     MD5 check sum: 5f350582108a937bec95f27f5610ab08
     Pseudo is Norm-conserving, Zval =  1.0
     Generated in analytical, separable form
     Using radial grid of  929 points,  0 beta functions with:

     atomic species   valence    mass     pseudopotential
        Si             4.00    28.08000     Si( 1.00)
        H              1.00     1.00784     H ( 1.00)

     No symmetry found

                                    s                        frac. trans.

      isym =  1     identity

 cryst.   s( 1) = (     1          0          0      )
                  (     0          1          0      )
                  (     0          0          1      )

 cart.    s( 1) = (  1.0000000  0.0000000  0.0000000 )
                  (  0.0000000  1.0000000  0.0000000 )
                  (  0.0000000  0.0000000  1.0000000 )

   Cartesian axes

     site n.     atom                  positions (alat units)
         1           Si  tau(   1) = (   0.9928640   0.0060765   0.5351250  )
         2           Si  tau(   2) = (   0.3262760   0.0468884   0.9830150  )
         3           Si  tau(   3) = (   0.3848150   0.3867770   0.2998170  )
         4           Si  tau(   4) = (   0.9056650   0.3119450   0.1211620  )
         5           Si  tau(   5) = (   0.2704590   0.8644710   0.2880720  )
         6           Si  tau(   6) = (   0.3826110   0.6290490   0.5070610  )
         7           Si  tau(   7) = (   0.5975460   0.1889620   0.9806560  )
         8           Si  tau(   8) = (   0.3726080   0.7252610   0.0087659  )
         9           Si  tau(   9) = (   0.4350720   0.0017962   0.5661910  )
        10           Si  tau(  10) = (   0.6963160   0.4828300   0.8549950  )
        11           Si  tau(  11) = (   0.4552210   0.3224000   0.6757830  )
        12           Si  tau(  12) = (   0.3142900   0.8311140   0.4966660  )
        13           Si  tau(  13) = (   0.8704770   0.8070620   0.7594980  )
        14           Si  tau(  14) = (   0.4206000   0.9049120   0.1198320  )
        15           Si  tau(  15) = (   0.1341530   0.1656330   0.2105350  )
        16           Si  tau(  16) = (   0.7391700   0.2156810   0.6296420  )
        17           Si  tau(  17) = (   0.1106460   0.8237310   0.5800660  )
        18           Si  tau(  18) = (   0.9139980   0.7324700   0.5405020  )
        19           Si  tau(  19) = (   0.5591070   0.4808080   0.1545980  )
        20           Si  tau(  20) = (   0.3347660   0.3777080   0.8405680  )
        21           Si  tau(  21) = (   0.8061070   0.9177120   0.4707390  )
        22           Si  tau(  22) = (   0.3697230   0.9894520   0.7794970  )
        23           Si  tau(  23) = (   0.2552000   0.1496150   0.5036400  )
        24           Si  tau(  24) = (   0.6439360   0.4161740   0.6540070  )
        25           Si  tau(  25) = (   0.2064110   0.5155150   0.5639470  )
        26           Si  tau(  26) = (   0.6760210   0.1968210   0.3358040  )
        27           Si  tau(  27) = (   0.3089110   0.0748619   0.3022050  )
        28           Si  tau(  28) = (   0.5885420   0.6168170   0.5794260  )
        29           Si  tau(  29) = (   0.6375710   0.8692020   0.1264610  )
        30           Si  tau(  30) = (   0.7311290   0.5465320   0.2654340  )
        31           Si  tau(  31) = (   0.1385590   0.7290710   0.7811940  )
        32           Si  tau(  32) = (   0.6757970   0.8985560   0.7826360  )
        33           Si  tau(  33) = (   0.7135230   0.0025198   0.9744650  )
        34           Si  tau(  34) = (   0.8979300   0.0902459   0.0846753  )
        35           Si  tau(  35) = (   0.2607920   0.6758680   0.1827300  )
        36           Si  tau(  36) = (   0.5410050   0.5936680   0.9639950  )
        37           Si  tau(  37) = (   0.0356679   0.8692790   0.9207210  )
        38           Si  tau(  38) = (   0.5445690   0.7246050   0.7614790  )
        39           Si  tau(  39) = (   0.3817010   0.2508260   0.0055736  )
        40           Si  tau(  40) = (   0.6535350   0.0150908   0.5989860  )
        41           Si  tau(  41) = (   0.3419880   0.7804660   0.8073600  )
        42           Si  tau(  42) = (   0.0520386   0.5360780   0.8544090  )
        43           Si  tau(  43) = (   0.9885860   0.0258974   0.7559140  )
        44           Si  tau(  44) = (   0.8810360   0.2177680   0.7930670  )
        45           Si  tau(  45) = (   0.7706270   0.3103520   0.9554370  )
        46           Si  tau(  46) = (   0.1051190   0.0689346   0.0020133  )
        47           Si  tau(  47) = (   0.0163633   0.3733460   0.7103010  )
        48           Si  tau(  48) = (   0.9627020   0.3743610   0.4810090  )
        49           Si  tau(  49) = (   0.0686776   0.4484640   0.0619020  )
        50           Si  tau(  50) = (   0.0412133   0.5737800   0.4298160  )
        51           Si  tau(  51) = (   0.0608648   0.6098430   0.2054410  )
        52           Si  tau(  52) = (   0.5394390   0.2584560   0.1817140  )
        53           Si  tau(  53) = (   0.0531385   0.1825920   0.4192400  )
        54           Si  tau(  54) = (   0.2390810   0.3413300   0.1463640  )
        55           Si  tau(  55) = (   0.8560280   0.6203390   0.8695730  )
        56           Si  tau(  56) = (   0.1948010   0.0859568   0.7049810  )
        57           Si  tau(  57) = (   0.4283910   0.5976120   0.2932730  )
        58           Si  tau(  58) = (   0.8041260   0.0333092   0.2742640  )
        59           Si  tau(  59) = (   0.8191210   0.3603150   0.3155720  )
        60           Si  tau(  60) = (   0.6169030   0.6924750   0.3750420  )
        61           Si  tau(  61) = (   0.9431540   0.7701090   0.1097210  )
        62           Si  tau(  62) = (   0.3291620   0.3485500   0.5066670  )
        63           Si  tau(  63) = (   0.7824330   0.8087090   0.2747350  )
        64           Si  tau(  64) = (   0.1467020   0.2503070   0.8359050  )
        65           H   tau(  65) = (   0.8668220   0.6652390   0.0166053  )
        66           H   tau(  66) = (   0.4273870   0.1471980   0.2441290  )
        67           H   tau(  67) = (   0.4381460   0.4914050   0.9071240  )
        68           H   tau(  68) = (   0.8355490   0.2293060   0.5288000  )
        69           H   tau(  69) = (   0.7687460   0.8635950   0.0373755  )
        70           H   tau(  70) = (   0.6355250   0.7437470   0.0516925  )
        71           H   tau(  71) = (   0.7958290   0.6237880   0.1657000  )
        72           H   tau(  72) = (   0.1274100   0.8854240   0.2764190  )

   Crystallographic axes

     site n.     atom                  positions (cryst. coord.)
         1           Si  tau(   1) = (  0.9928640  0.0060765  0.5351250  )
         2           Si  tau(   2) = (  0.3262760  0.0468884  0.9830150  )
         3           Si  tau(   3) = (  0.3848150  0.3867770  0.2998170  )
         4           Si  tau(   4) = (  0.9056650  0.3119450  0.1211620  )
         5           Si  tau(   5) = (  0.2704590  0.8644710  0.2880720  )
         6           Si  tau(   6) = (  0.3826110  0.6290490  0.5070610  )
         7           Si  tau(   7) = (  0.5975460  0.1889620  0.9806560  )
         8           Si  tau(   8) = (  0.3726080  0.7252610  0.0087659  )
         9           Si  tau(   9) = (  0.4350720  0.0017962  0.5661910  )
        10           Si  tau(  10) = (  0.6963160  0.4828300  0.8549950  )
        11           Si  tau(  11) = (  0.4552210  0.3224000  0.6757830  )
        12           Si  tau(  12) = (  0.3142900  0.8311140  0.4966660  )
        13           Si  tau(  13) = (  0.8704770  0.8070620  0.7594980  )
        14           Si  tau(  14) = (  0.4206000  0.9049120  0.1198320  )
        15           Si  tau(  15) = (  0.1341530  0.1656330  0.2105350  )
        16           Si  tau(  16) = (  0.7391700  0.2156810  0.6296420  )
        17           Si  tau(  17) = (  0.1106460  0.8237310  0.5800660  )
        18           Si  tau(  18) = (  0.9139980  0.7324700  0.5405020  )
        19           Si  tau(  19) = (  0.5591070  0.4808080  0.1545980  )
        20           Si  tau(  20) = (  0.3347660  0.3777080  0.8405680  )
        21           Si  tau(  21) = (  0.8061070  0.9177120  0.4707390  )
        22           Si  tau(  22) = (  0.3697230  0.9894520  0.7794970  )
        23           Si  tau(  23) = (  0.2552000  0.1496150  0.5036400  )
        24           Si  tau(  24) = (  0.6439360  0.4161740  0.6540070  )
        25           Si  tau(  25) = (  0.2064110  0.5155150  0.5639470  )
        26           Si  tau(  26) = (  0.6760210  0.1968210  0.3358040  )
        27           Si  tau(  27) = (  0.3089110  0.0748619  0.3022050  )
        28           Si  tau(  28) = (  0.5885420  0.6168170  0.5794260  )
        29           Si  tau(  29) = (  0.6375710  0.8692020  0.1264610  )
        30           Si  tau(  30) = (  0.7311290  0.5465320  0.2654340  )
[...]
     atom   35 type  1   force =     0.00000000    0.00000000    0.00000000
     atom   36 type  1   force =     0.00000000    0.00000000    0.00000000
     atom   37 type  1   force =     0.00000000    0.00000000    0.00000000
     atom   38 type  1   force =     0.00000000    0.00000000    0.00000000
     atom   39 type  1   force =     0.00000000    0.00000000    0.00000000
     atom   40 type  1   force =     0.00000000    0.00000000    0.00000000
     atom   41 type  1   force =     0.00000000    0.00000000    0.00000000
     atom   42 type  1   force =     0.00000000    0.00000000    0.00000000
     atom   43 type  1   force =     0.00000000    0.00000000    0.00000000
     atom   44 type  1   force =     0.00000000    0.00000000    0.00000000
     atom   45 type  1   force =     0.00000000    0.00000000    0.00000000
     atom   46 type  1   force =     0.00000000    0.00000000    0.00000000
     atom   47 type  1   force =     0.00000000    0.00000000    0.00000000
     atom   48 type  1   force =     0.00000000    0.00000000    0.00000000
     atom   49 type  1   force =     0.00000000    0.00000000    0.00000000
     atom   50 type  1   force =     0.00000000    0.00000000    0.00000000
     atom   51 type  1   force =     0.00000000    0.00000000    0.00000000
     atom   52 type  1   force =     0.00000000    0.00000000    0.00000000
     atom   53 type  1   force =     0.00000000    0.00000000    0.00000000
     atom   54 type  1   force =     0.00000000    0.00000000    0.00000000
     atom   55 type  1   force =     0.00000000    0.00000000    0.00000000
     atom   56 type  1   force =     0.00000000    0.00000000    0.00000000
     atom   57 type  1   force =     0.00000000    0.00000000    0.00000000
     atom   58 type  1   force =     0.00000000    0.00000000    0.00000000
     atom   59 type  1   force =     0.00000000    0.00000000    0.00000000
     atom   60 type  1   force =     0.00000000    0.00000000    0.00000000
     atom   61 type  1   force =     0.00000000    0.00000000    0.00000000
     atom   62 type  1   force =     0.00000000    0.00000000    0.00000000
     atom   63 type  1   force =     0.00000000    0.00000000    0.00000000
     atom   64 type  1   force =     0.00000000    0.00000000    0.00000000
     atom   65 type  2   force =     0.00000000    0.00000000    0.00000000
     atom   66 type  2   force =     0.00000000    0.00000000    0.00000000
     atom   67 type  2   force =     0.00000000    0.00000000    0.00000000
     atom   68 type  2   force =     0.00000000    0.00000000    0.00000000
     atom   69 type  2   force =     0.00000000    0.00000000    0.00000000
     atom   70 type  2   force =     0.00000000    0.00000000    0.00000000
     atom   71 type  2   force =     0.00000000    0.00000000    0.00000000
     atom   72 type  2   force =     0.00000000    0.00000000    0.00000000
     The Hubbard contrib.    to forces
     atom    1 type  1   force =     0.00000000    0.00000000    0.00000000
     atom    2 type  1   force =     0.00000000    0.00000000    0.00000000
     atom    3 type  1   force =     0.00000000    0.00000000    0.00000000
     atom    4 type  1   force =     0.00000000    0.00000000    0.00000000
     atom    5 type  1   force =     0.00000000    0.00000000    0.00000000
     atom    6 type  1   force =     0.00000000    0.00000000    0.00000000
     atom    7 type  1   force =     0.00000000    0.00000000    0.00000000
     atom    8 type  1   force =     0.00000000    0.00000000    0.00000000
     atom    9 type  1   force =     0.00000000    0.00000000    0.00000000
     atom   10 type  1   force =     0.00000000    0.00000000    0.00000000
     atom   11 type  1   force =     0.00000000    0.00000000    0.00000000
     atom   12 type  1   force =     0.00000000    0.00000000    0.00000000
     atom   13 type  1   force =     0.00000000    0.00000000    0.00000000
     atom   14 type  1   force =     0.00000000    0.00000000    0.00000000
     atom   15 type  1   force =     0.00000000    0.00000000    0.00000000
     atom   16 type  1   force =     0.00000000    0.00000000    0.00000000
     atom   17 type  1   force =     0.00000000    0.00000000    0.00000000
     atom   18 type  1   force =     0.00000000    0.00000000    0.00000000
     atom   19 type  1   force =     0.00000000    0.00000000    0.00000000
     atom   20 type  1   force =     0.00000000    0.00000000    0.00000000
     atom   21 type  1   force =     0.00000000    0.00000000    0.00000000
     atom   22 type  1   force =     0.00000000    0.00000000    0.00000000
     atom   23 type  1   force =     0.00000000    0.00000000    0.00000000
     atom   24 type  1   force =     0.00000000    0.00000000    0.00000000
     atom   25 type  1   force =     0.00000000    0.00000000    0.00000000
     atom   26 type  1   force =     0.00000000    0.00000000    0.00000000
     atom   27 type  1   force =     0.00000000    0.00000000    0.00000000
     atom   28 type  1   force =     0.00000000    0.00000000    0.00000000
     atom   29 type  1   force =     0.00000000    0.00000000    0.00000000
     atom   30 type  1   force =     0.00000000    0.00000000    0.00000000
     atom   31 type  1   force =     0.00000000    0.00000000    0.00000000
     atom   32 type  1   force =     0.00000000    0.00000000    0.00000000
     atom   33 type  1   force =     0.00000000    0.00000000    0.00000000
     atom   34 type  1   force =     0.00000000    0.00000000    0.00000000
     atom   35 type  1   force =     0.00000000    0.00000000    0.00000000
     atom   36 type  1   force =     0.00000000    0.00000000    0.00000000
     atom   37 type  1   force =     0.00000000    0.00000000    0.00000000
     atom   38 type  1   force =     0.00000000    0.00000000    0.00000000
     atom   39 type  1   force =     0.00000000    0.00000000    0.00000000
     atom   40 type  1   force =     0.00000000    0.00000000    0.00000000
     atom   41 type  1   force =     0.00000000    0.00000000    0.00000000
     atom   42 type  1   force =     0.00000000    0.00000000    0.00000000
     atom   43 type  1   force =     0.00000000    0.00000000    0.00000000
     atom   44 type  1   force =     0.00000000    0.00000000    0.00000000
     atom   45 type  1   force =     0.00000000    0.00000000    0.00000000
     atom   46 type  1   force =     0.00000000    0.00000000    0.00000000
     atom   47 type  1   force =     0.00000000    0.00000000    0.00000000
     atom   48 type  1   force =     0.00000000    0.00000000    0.00000000
     atom   49 type  1   force =     0.00000000    0.00000000    0.00000000
     atom   50 type  1   force =     0.00000000    0.00000000    0.00000000
     atom   51 type  1   force =     0.00000000    0.00000000    0.00000000
     atom   52 type  1   force =     0.00000000    0.00000000    0.00000000
     atom   53 type  1   force =     0.00000000    0.00000000    0.00000000
     atom   54 type  1   force =     0.00000000    0.00000000    0.00000000
     atom   55 type  1   force =     0.00000000    0.00000000    0.00000000
     atom   56 type  1   force =     0.00000000    0.00000000    0.00000000
     atom   57 type  1   force =     0.00000000    0.00000000    0.00000000
     atom   58 type  1   force =     0.00000000    0.00000000    0.00000000
     atom   59 type  1   force =     0.00000000    0.00000000    0.00000000
     atom   60 type  1   force =     0.00000000    0.00000000    0.00000000
     atom   61 type  1   force =     0.00000000    0.00000000    0.00000000
     atom   62 type  1   force =     0.00000000    0.00000000    0.00000000
     atom   63 type  1   force =     0.00000000    0.00000000    0.00000000
     atom   64 type  1   force =     0.00000000    0.00000000    0.00000000
     atom   65 type  2   force =     0.00000000    0.00000000    0.00000000
     atom   66 type  2   force =     0.00000000    0.00000000    0.00000000
     atom   67 type  2   force =     0.00000000    0.00000000    0.00000000
     atom   68 type  2   force =     0.00000000    0.00000000    0.00000000
     atom   69 type  2   force =     0.00000000    0.00000000    0.00000000
     atom   70 type  2   force =     0.00000000    0.00000000    0.00000000
     atom   71 type  2   force =     0.00000000    0.00000000    0.00000000
     atom   72 type  2   force =     0.00000000    0.00000000    0.00000000
     The SCF correction term to forces
     atom    1 type  1   force =    -0.00001474    0.00000285    0.00000401
     atom    2 type  1   force =     0.00001303   -0.00000105   -0.00000691
     atom    3 type  1   force =     0.00001482   -0.00000645   -0.00000996
     atom    4 type  1   force =    -0.00001496   -0.00000986   -0.00001371
     atom    5 type  1   force =     0.00000859    0.00000873   -0.00001060
     atom    6 type  1   force =     0.00001542    0.00000680    0.00000649
     atom    7 type  1   force =     0.00000847   -0.00000765   -0.00000573
     atom    8 type  1   force =     0.00001592    0.00000588   -0.00000668
     atom    9 type  1   force =     0.00001672    0.00000428    0.00001180
     atom   10 type  1   force =    -0.00000468   -0.00000067    0.00000746
     atom   11 type  1   force =     0.00001395   -0.00000843    0.00000936
     atom   12 type  1   force =     0.00001574    0.00000959    0.00000357
     atom   13 type  1   force =    -0.00002094    0.00000974    0.00001472
     atom   14 type  1   force =     0.00001426    0.00000104   -0.00001010
     atom   15 type  1   force =    -0.00000262   -0.00000839   -0.00001176
     atom   16 type  1   force =    -0.00001083   -0.00000857    0.00001114
     atom   17 type  1   force =     0.00000062    0.00000869    0.00000664
     atom   18 type  1   force =    -0.00001804    0.00000777    0.00000282
     atom   19 type  1   force =     0.00000793   -0.00000221   -0.00001649
     atom   20 type  1   force =     0.00001502   -0.00000673    0.00000535
     atom   21 type  1   force =    -0.00001487    0.00000705   -0.00000239
     atom   22 type  1   force =     0.00001725    0.00000231    0.00000791
     atom   23 type  1   force =     0.00001412   -0.00000562    0.00000476
     atom   24 type  1   force =    -0.00000355   -0.00000843    0.00001213
     atom   25 type  1   force =     0.00000812   -0.00000265    0.00000828
     atom   26 type  1   force =    -0.00000308   -0.00001097   -0.00000564
     atom   27 type  1   force =     0.00001328   -0.00000403   -0.00000765
     atom   28 type  1   force =     0.00000412    0.00000697    0.00001205
     atom   29 type  1   force =     0.00000458    0.00000478   -0.00001276
     atom   30 type  1   force =    -0.00000610    0.00000257   -0.00001370
     atom   31 type  1   force =     0.00000512    0.00000555    0.00001640
     atom   32 type  1   force =    -0.00000579    0.00000656    0.00000848
     atom   33 type  1   force =    -0.00000462    0.00000124   -0.00000305
     atom   34 type  1   force =    -0.00001426   -0.00000631   -0.00000832
     atom   35 type  1   force =     0.00000972    0.00000797   -0.00001620
     atom   36 type  1   force =     0.00000689    0.00000422   -0.00000396
     atom   37 type  1   force =    -0.00001102    0.00000641    0.00000930
     atom   38 type  1   force =     0.00000655    0.00000845    0.00001261
     atom   39 type  1   force =     0.00001517   -0.00000755   -0.00000956
     atom   40 type  1   force =    -0.00000491    0.00000247    0.00001221
     atom   41 type  1   force =     0.00001945    0.00000570    0.00001149
     atom   42 type  1   force =    -0.00000642   -0.00000086    0.00000780
     atom   43 type  1   force =    -0.00001517    0.00000467    0.00001396
     atom   44 type  1   force =    -0.00001675   -0.00000723    0.00001142
     atom   45 type  1   force =    -0.00000964   -0.00000936   -0.00000251
     atom   46 type  1   force =    -0.00000755   -0.00000475   -0.00000223
     atom   47 type  1   force =    -0.00000975   -0.00000833    0.00001607
     atom   48 type  1   force =    -0.00001382   -0.00000552    0.00000166
     atom   49 type  1   force =    -0.00000580   -0.00000453   -0.00000874
     atom   50 type  1   force =    -0.00001161    0.00000064   -0.00000264
     atom   51 type  1   force =    -0.00000856    0.00001000   -0.00001514
     atom   52 type  1   force =     0.00001104   -0.00000754   -0.00001140
     atom   53 type  1   force =    -0.00000687   -0.00000802   -0.00000363
     atom   54 type  1   force =     0.00000536   -0.00000638   -0.00001246
     atom   55 type  1   force =    -0.00001830    0.00000288    0.00000846
     atom   56 type  1   force =     0.00001046   -0.00000074    0.00001356
     atom   57 type  1   force =     0.00001302    0.00000536   -0.00001278
     atom   58 type  1   force =    -0.00001243   -0.00000391   -0.00001171
     atom   59 type  1   force =    -0.00001384   -0.00000640   -0.00000997
     atom   60 type  1   force =     0.00000414    0.00000880   -0.00000380
     atom   61 type  1   force =    -0.00001182    0.00000986   -0.00000960
     atom   62 type  1   force =     0.00001621   -0.00001017    0.00001048
     atom   63 type  1   force =    -0.00001086    0.00001172   -0.00001240
     atom   64 type  1   force =     0.00000118   -0.00000589    0.00000563
     atom   65 type  2   force =    -0.00000413    0.00000247   -0.00000003
     atom   66 type  2   force =     0.00000359   -0.00000187   -0.00000201
     atom   67 type  2   force =     0.00000407    0.00000069    0.00000105
     atom   68 type  2   force =    -0.00000374   -0.00000296    0.00000149
     atom   69 type  2   force =    -0.00000271    0.00000156   -0.00000121
     atom   70 type  2   force =     0.00000069    0.00000214   -0.00000193
     atom   71 type  2   force =    -0.00000325    0.00000152   -0.00000436
     atom   72 type  2   force =    -0.00000299    0.00000223   -0.00000347

     Total force =     0.125663     Total SCF correction =     0.000135

     Computing stress (Cartesian axis) and pressure

          total   stress  (Ry/bohr**3)                   (kbar)     P=   -2.04
   0.00003530   0.00001384   0.00004883          5.19      2.04      7.18
   0.00001384   0.00001773  -0.00000529          2.04      2.61     -0.78
   0.00004883  -0.00000529  -0.00009456          7.18     -0.78    -13.91

     kinetic stress (kbar)   2324.20     -3.02     11.81
                               -3.02   2318.31     -1.97
                               11.81     -1.97   2303.56

     local   stress (kbar)  -1170.69     -8.69     10.08
                               -8.69  -1386.14     27.21
                               10.08     27.21  -1248.92

     nonloc. stress (kbar)   2541.62     -5.24      0.43
                               -5.24   2540.56     -6.22
                                0.43     -6.22   2536.33

     hartree stress (kbar)    202.09      6.69     -5.88
                                6.69    281.61      0.48
                               -5.88      0.48    233.61

     exc-cor stress (kbar)   -814.96      0.32      0.06
                                0.32   -814.80     -0.08
                                0.06     -0.08   -814.97

     corecor stress (kbar)      0.00      0.00      0.00
                                0.00      0.00      0.00
                                0.00      0.00      0.00

     ewald   stress (kbar)  -3077.07     11.97     -9.31
                               11.97  -2936.92    -20.20
                               -9.31    -20.20  -3023.52

     hubbard stress (kbar)      0.00      0.00      0.00
                                0.00      0.00      0.00
                                0.00      0.00      0.00

     london  stress (kbar)      0.00      0.00      0.00
                                0.00      0.00      0.00
                                0.00      0.00      0.00

     DFT-D3  stress (kbar)      0.00      0.00      0.00
                                0.00      0.00      0.00
                                0.00      0.00      0.00

     XDM     stress (kbar)      0.00      0.00      0.00
                                0.00      0.00      0.00
                                0.00      0.00      0.00

     dft-nl  stress (kbar)      0.00      0.00      0.00
                                0.00      0.00      0.00
                                0.00      0.00      0.00

     TS-vdW  stress (kbar)      0.00      0.00      0.00
                                0.00      0.00      0.00
                                0.00      0.00      0.00

     Writing output data file liquid_optimize1.save

     General routines

     Parallel routines

   This run was terminated on:   8:49:59   7Nov2020

   JOB DONE.