     Program PWSCF v.6.2 (svn rev. 14038) starts on  7Nov2020 at 21: 9:41

     R & G space division:  proc/nbgrp/npool/nimage =       8
     Waiting for input...
     Reading input from standard input
Warning: card &IONS ignored
Warning: card / ignored

     Current dimensions of program PWSCF are:
     Max number of different atomic species (ntypx) = 10
     Max number of k-points (npk) =  40000
     Max angular momentum in pseudopotentials (lmaxx) =  3

     Subspace diagonalization in iterative solution of the eigenvalue problem:
     a serial algorithm will be used

     bravais-lattice index     =            0
     lattice parameter (alat)  =      30.2786  a.u.
     unit-cell volume          =   30184.2489 (a.u.)^3
     number of atoms/cell      =          219
     number of atomic types    =            2
     number of electrons       =       864.00
     number of Kohn-Sham states=          518
     kinetic-energy cutoff     =      42.0000  Ry
     charge density cutoff     =     168.0000  Ry
     convergence threshold     =      1.0E-08
     mixing beta               =       0.3000
     number of iterations used =            8  plain     mixing
     Exchange-correlation      = SLA-PW-PBX-PBC ( 1  4  3  4 0 0)

     celldm(1)=  30.278602  celldm(2)=   0.000000  celldm(3)=   0.000000
     celldm(4)=   0.000000  celldm(5)=   0.000000  celldm(6)=   0.000000

     crystal axes: (cart. coord. in units of alat)
               a(1) = (   1.000000   0.000000   0.000000 )
               a(2) = (  -0.029468   1.024572   0.000000 )
               a(3) = (   0.056888   0.010279   1.061281 )

     reciprocal axes: (cart. coord. in units 2 pi/alat)
               b(1) = (  1.000000  0.028761 -0.053882 )
               b(2) = (  0.000000  0.976017 -0.009453 )
               b(3) = (  0.000000 -0.000000  0.942258 )

     PseudoPot. # 1 for Si read from file:
     ./Si.pbe-hgh.UPF
     MD5 check sum: 9a9f0f6e09139bfdb36b03ff6bc35900
     Pseudo is Norm-conserving, Zval =  4.0
     Generated in analytical, separable form
     Using radial grid of 1141 points,  3 beta functions with:
                l(1) =   0
                l(2) =   0
                l(3) =   1

     PseudoPot. # 2 for H  read from file:
     ./H.pbe-hgh.UPF
     MD5 check sum: 5f350582108a937bec95f27f5610ab08
     Pseudo is Norm-conserving, Zval =  1.0
     Generated in analytical, separable form
     Using radial grid of  929 points,  0 beta functions with:

     atomic species   valence    mass     pseudopotential
        Si             4.00    28.08000     Si( 1.00)
        H              1.00     1.00784     H ( 1.00)

     No symmetry found

                                    s                        frac. trans.

      isym =  1     identity

 cryst.   s( 1) = (     1          0          0      )
                  (     0          1          0      )
                  (     0          0          1      )

 cart.    s( 1) = (  1.0000000  0.0000000 -0.0000000 )
                  (  0.0000000  1.0000000  0.0000000 )
                  (  0.0000000  0.0000000  1.0000000 )

   Cartesian axes

     site n.     atom                  positions (alat units)
         1           Si  tau(   1) = (   0.7738002   0.9473240   0.9722235  )
         2           Si  tau(   2) = (   0.0903950   0.0876467   0.1008290  )
         3           Si  tau(   3) = (   0.1594500   0.1695620   0.0002563  )
         4           Si  tau(   4) = (   0.2459420   0.2539181   0.0893240  )
         5           Si  tau(   5) = (   0.1801365   0.0018049   0.1813665  )
         6           Si  tau(   6) = (   0.2637087   0.0870931   0.2687471  )
         7           Si  tau(   7) = (   0.0047778   0.1763521   0.1800155  )
         8           Si  tau(   8) = (   0.0912555   0.2583034   0.2681231  )
         9           Si  tau(   9) = (   0.0199744   0.0045809   0.3540274  )
        10           Si  tau(  10) = (   0.1051107   0.0880569   0.4437374  )
        11           Si  tau(  11) = (   0.1818457   0.1755192   0.3545676  )
        12           Si  tau(  12) = (   0.2671125   0.2590587   0.4438468  )
        13           Si  tau(  13) = (   0.1960514   0.0058685   0.5302934  )
        14           Si  tau(  14) = (   0.2812699   0.0895241   0.6197944  )
        15           Si  tau(  15) = (   0.0241896   0.1768912   0.5301904  )
        16           Si  tau(  16) = (   0.1094282   0.2604963   0.6197923  )
        17           Si  tau(  17) = (   0.0380572   0.0078544   0.7058420  )
        18           Si  tau(  18) = (   0.1223430   0.0919194   0.7953260  )
        19           Si  tau(  19) = (   0.2005097   0.1784181   0.7064565  )
        20           Si  tau(  20) = (   0.2851577   0.2615796   0.7972257  )
        21           Si  tau(  21) = (   0.2135774   0.0120094   0.8831311  )
        22           Si  tau(  22) = (   0.2989264   0.0930481   0.9748841  )
        23           Si  tau(  23) = (   0.0429999   0.1817246   0.8817673  )
        24           Si  tau(  24) = (   0.1269565   0.2631306   0.9744033  )
        25           Si  tau(  25) = (   0.0476542   0.3529890   1.0607619  )
        26           Si  tau(  26) = (   0.0761225   0.4258042   0.0895153  )
        27           Si  tau(  27) = (   0.2098795   0.5229069   1.0609476  )
        28           Si  tau(  28) = (   0.2386349   0.5957623   0.0897274  )
        29           Si  tau(  29) = (   0.1671028   0.3440258   0.1765589  )
        30           Si  tau(  30) = (   0.2526021   0.4274596   0.2664579  )
        31           Si  tau(  31) = (  -0.0044698   0.5144682   0.1765292  )
        32           Si  tau(  32) = (   0.0807978   0.5975808   0.2669100  )
        33           Si  tau(  33) = (   0.0097151   0.3462713   0.3541431  )
        34           Si  tau(  34) = (   0.0952282   0.4293386   0.4435432  )
        35           Si  tau(  35) = (   0.1719593   0.5160417   0.3535922  )
        36           Si  tau(  36) = (   0.2570810   0.5999398   0.4433002  )
        37           Si  tau(  37) = (   0.1862295   0.3476829   0.5304600  )
        38           Si  tau(  38) = (   0.2713229   0.4310227   0.6204970  )
        39           Si  tau(  39) = (   0.0143569   0.5175827   0.5301607  )
        40           Si  tau(  40) = (   0.1000001   0.6004583   0.6195429  )
        41           Si  tau(  41) = (   0.0287339   0.3493362   0.7065626  )
        42           Si  tau(  42) = (   0.1138474   0.4322600   0.7971196  )
        43           Si  tau(  43) = (   0.1906593   0.5194930   0.7076122  )
        44           Si  tau(  44) = (   0.2750990   0.6036620   0.7977818  )
        45           Si  tau(  45) = (   0.2044543   0.3500254   0.8844609  )
        46           Si  tau(  46) = (   0.2900188   0.4337120   0.9740149  )
        47           Si  tau(  47) = (   0.0334839   0.5214362   0.8838156  )
        48           Si  tau(  48) = (   0.1189174   0.6046368   0.9737475  )
        49           Si  tau(  49) = (   0.0379731   0.6931706   1.0608648  )
        50           Si  tau(  50) = (   0.0670728   0.7651404   0.0903517  )
        51           Si  tau(  51) = (   0.1456446   0.8526705   0.0039025  )
        52           Si  tau(  52) = (   0.2293859   0.9392234   0.0915135  )
        53           Si  tau(  53) = (   0.1581012   0.6841662   0.1771755  )
        54           Si  tau(  54) = (   0.2428650   0.7687930   0.2666988  )
        55           Si  tau(  55) = (  -0.0088876   0.8543869   0.1798574  )
        56           Si  tau(  56) = (   0.0728942   0.9399066   0.2697415  )
        57           Si  tau(  57) = (   0.0004030   0.6859173   0.3544901  )
        58           Si  tau(  58) = (   0.0853234   0.7699051   0.4440388  )
        59           Si  tau(  59) = (   0.1630354   0.8568350   0.3552935  )
        60           Si  tau(  60) = (   0.2478236   0.9413638   0.4442161  )
[...]
       205           Si  tau( 205) = (   0.8425251   0.6886960   0.5294677  )
       206           Si  tau( 206) = (   0.9277945   0.7718006   0.6192308  )
       207           Si  tau( 207) = (   0.6710477   0.8592298   0.5295654  )
       208           Si  tau( 208) = (   0.7555675   0.9430825   0.6192351  )
       209           Si  tau( 209) = (   0.6852939   0.6902557   0.7067929  )
       210           Si  tau( 210) = (   0.7703978   0.7739292   0.7964785  )
       211           Si  tau( 211) = (   0.8463219   0.8604657   0.7054090  )
       212           Si  tau( 212) = (   0.9305427   0.9454529   0.7940493  )
       213           Si  tau( 213) = (   0.8611189   0.6911919   0.8831226  )
       214           Si  tau( 214) = (   0.9459362   0.7739040   0.9733972  )
       215           Si  tau( 215) = (   0.6891854   0.8624230   0.8832765  )
       216           H   tau( 216) = (   1.0194048   0.0428546   1.0181971  )
       217           H   tau( 217) = (   0.0295466   0.0314348   0.0528644  )
       218           H   tau( 218) = (   0.8295928   0.8653272   0.1612319  )
       219           H   tau( 219) = (   0.1790505   0.8687380   0.9006793  )

   Crystallographic axes

     site n.     atom                  positions (cryst. coord.)
         1           Si  tau(   1) = (  0.7486610  0.9154140  0.9160850  )
         2           Si  tau(   2) = (  0.0874830  0.0845915  0.0950069  )
         3           Si  tau(   3) = (  0.1643130  0.1654930  0.0002415  )
         4           Si  tau(   4) = (  0.2484320  0.2469840  0.0841662  )
         5           Si  tau(   5) = (  0.1704160  0.0000471  0.1708940  )
         6           Si  tau(   6) = (  0.2517330  0.0824639  0.2532290  )
         7           Si  tau(   7) = (  0.0001503  0.1704210  0.1696210  )
         8           Si  tau(   8) = (  0.0842376  0.2495740  0.2526410  )
         9           Si  tau(   9) = (  0.0010305  0.0011244  0.3335850  )
        10           Si  tau(  10) = (  0.0837339  0.0817504  0.4181150  )
        11           Si  tau(  11) = (  0.1677890  0.1679580  0.3340940  )
        12           Si  tau(  12) = (  0.2506480  0.2486500  0.4182180  )
        13           Si  tau(  13) = (  0.1676470  0.0007149  0.4996730  )
        14           Si  tau(  14) = (  0.2504490  0.0815182  0.5840060  )
        15           Si  tau(  15) = (  0.0007095  0.1676370  0.4995760  )
        16           Si  tau(  16) = (  0.0835248  0.2483900  0.5840040  )
        17           Si  tau(  17) = (  0.0002510  0.0009937  0.6650850  )
        18           Si  tau(  18) = (  0.0821330  0.0821967  0.7494020  )
        19           Si  tau(  19) = (  0.1675760  0.1674610  0.6656640  )
        20           Si  tau(  20) = (  0.2497250  0.2477700  0.7511920  )
        21           Si  tau(  21) = (  0.1663380  0.0033732  0.8321370  )
        22           Si  tau(  22) = (  0.2490740  0.0816010  0.9185920  )
        23           Si  tau(  23) = (  0.0007152  0.1690310  0.8308520  )
        24           Si  tau(  24) = (  0.0820217  0.2476090  0.9181390  )
        25           Si  tau(  25) = (  0.0006506  0.3344960  0.9995110  )
        26           Si  tau(  26) = (  0.0835458  0.4147460  0.0843465  )
        27           Si  tau(  27) = (  0.1677530  0.5003370  0.9996860  )
[...]
     atom   44 type  1   force =     0.00000000    0.00000000    0.00000000
     atom   45 type  1   force =     0.00000000    0.00000000    0.00000000
     atom   46 type  1   force =     0.00000000    0.00000000    0.00000000
     atom   47 type  1   force =     0.00000000    0.00000000    0.00000000
     atom   48 type  1   force =     0.00000000    0.00000000    0.00000000
     atom   49 type  1   force =     0.00000000    0.00000000    0.00000000
     atom   50 type  1   force =     0.00000000    0.00000000    0.00000000
     atom   51 type  1   force =     0.00000000    0.00000000    0.00000000
     atom   52 type  1   force =     0.00000000    0.00000000    0.00000000
     atom   53 type  1   force =     0.00000000    0.00000000    0.00000000
     atom   54 type  1   force =     0.00000000    0.00000000    0.00000000
     atom   55 type  1   force =     0.00000000    0.00000000    0.00000000
     atom   56 type  1   force =     0.00000000    0.00000000    0.00000000
     atom   57 type  1   force =     0.00000000    0.00000000    0.00000000
     atom   58 type  1   force =     0.00000000    0.00000000    0.00000000
     atom   59 type  1   force =     0.00000000    0.00000000    0.00000000
     atom   60 type  1   force =     0.00000000    0.00000000    0.00000000
[...]
     atom  205 type  1   force =     0.00000000    0.00000000    0.00000000
     atom  206 type  1   force =     0.00000000    0.00000000    0.00000000
     atom  207 type  1   force =     0.00000000    0.00000000    0.00000000
     atom  208 type  1   force =     0.00000000    0.00000000    0.00000000
     atom  209 type  1   force =     0.00000000    0.00000000    0.00000000
     atom  210 type  1   force =     0.00000000    0.00000000    0.00000000
     atom  211 type  1   force =     0.00000000    0.00000000    0.00000000
     atom  212 type  1   force =     0.00000000    0.00000000    0.00000000
     atom  213 type  1   force =     0.00000000    0.00000000    0.00000000
     atom  214 type  1   force =     0.00000000    0.00000000    0.00000000
     atom  215 type  1   force =     0.00000000    0.00000000    0.00000000
     atom  216 type  2   force =     0.00000000    0.00000000    0.00000000
     atom  217 type  2   force =     0.00000000    0.00000000    0.00000000
     atom  218 type  2   force =     0.00000000    0.00000000    0.00000000
     atom  219 type  2   force =     0.00000000    0.00000000    0.00000000
     The Hubbard contrib.    to forces
     atom    1 type  1   force =     0.00000000    0.00000000    0.00000000
     atom    2 type  1   force =     0.00000000    0.00000000    0.00000000
     atom    3 type  1   force =     0.00000000    0.00000000    0.00000000
     atom    4 type  1   force =     0.00000000    0.00000000    0.00000000
     atom    5 type  1   force =     0.00000000    0.00000000    0.00000000
     atom    6 type  1   force =     0.00000000    0.00000000    0.00000000
     atom    7 type  1   force =     0.00000000    0.00000000    0.00000000
     atom    8 type  1   force =     0.00000000    0.00000000    0.00000000
     atom    9 type  1   force =     0.00000000    0.00000000    0.00000000
     atom   10 type  1   force =     0.00000000    0.00000000    0.00000000
     atom   11 type  1   force =     0.00000000    0.00000000    0.00000000
     atom   12 type  1   force =     0.00000000    0.00000000    0.00000000
     atom   13 type  1   force =     0.00000000    0.00000000    0.00000000
     atom   14 type  1   force =     0.00000000    0.00000000    0.00000000
     atom   15 type  1   force =     0.00000000    0.00000000    0.00000000
     atom   16 type  1   force =     0.00000000    0.00000000    0.00000000
     atom   17 type  1   force =     0.00000000    0.00000000    0.00000000
     atom   18 type  1   force =     0.00000000    0.00000000    0.00000000
     atom   19 type  1   force =     0.00000000    0.00000000    0.00000000
     atom   20 type  1   force =     0.00000000    0.00000000    0.00000000
     atom   21 type  1   force =     0.00000000    0.00000000    0.00000000
     atom   22 type  1   force =     0.00000000    0.00000000    0.00000000
     atom   23 type  1   force =     0.00000000    0.00000000    0.00000000
     atom   24 type  1   force =     0.00000000    0.00000000    0.00000000
     atom   25 type  1   force =     0.00000000    0.00000000    0.00000000
     atom   26 type  1   force =     0.00000000    0.00000000    0.00000000
     atom   27 type  1   force =     0.00000000    0.00000000    0.00000000
     atom   28 type  1   force =     0.00000000    0.00000000    0.00000000
     atom   29 type  1   force =     0.00000000    0.00000000    0.00000000
     atom   30 type  1   force =     0.00000000    0.00000000    0.00000000
     atom   31 type  1   force =     0.00000000    0.00000000    0.00000000
     atom   32 type  1   force =     0.00000000    0.00000000    0.00000000
     atom   33 type  1   force =     0.00000000    0.00000000    0.00000000
     atom   34 type  1   force =     0.00000000    0.00000000    0.00000000
     atom   35 type  1   force =     0.00000000    0.00000000    0.00000000
     atom   36 type  1   force =     0.00000000    0.00000000    0.00000000
     atom   37 type  1   force =     0.00000000    0.00000000    0.00000000
     atom   38 type  1   force =     0.00000000    0.00000000    0.00000000
     atom   39 type  1   force =     0.00000000    0.00000000    0.00000000
     atom   40 type  1   force =     0.00000000    0.00000000    0.00000000
     atom   41 type  1   force =     0.00000000    0.00000000    0.00000000
     atom   42 type  1   force =     0.00000000    0.00000000    0.00000000
     atom   43 type  1   force =     0.00000000    0.00000000    0.00000000
     atom   44 type  1   force =     0.00000000    0.00000000    0.00000000
     atom   45 type  1   force =     0.00000000    0.00000000    0.00000000
     atom   46 type  1   force =     0.00000000    0.00000000    0.00000000
     atom   47 type  1   force =     0.00000000    0.00000000    0.00000000
     atom   48 type  1   force =     0.00000000    0.00000000    0.00000000
     atom   49 type  1   force =     0.00000000    0.00000000    0.00000000
     atom   50 type  1   force =     0.00000000    0.00000000    0.00000000
     atom   51 type  1   force =     0.00000000    0.00000000    0.00000000
     atom   52 type  1   force =     0.00000000    0.00000000    0.00000000
     atom   53 type  1   force =     0.00000000    0.00000000    0.00000000
     atom   54 type  1   force =     0.00000000    0.00000000    0.00000000
     atom   55 type  1   force =     0.00000000    0.00000000    0.00000000
     atom   56 type  1   force =     0.00000000    0.00000000    0.00000000
     atom   57 type  1   force =     0.00000000    0.00000000    0.00000000
     atom   58 type  1   force =     0.00000000    0.00000000    0.00000000
     atom   59 type  1   force =     0.00000000    0.00000000    0.00000000
     atom   60 type  1   force =     0.00000000    0.00000000    0.00000000
[...]
     atom  205 type  1   force =     0.00000000    0.00000000    0.00000000
     atom  206 type  1   force =     0.00000000    0.00000000    0.00000000
     atom  207 type  1   force =     0.00000000    0.00000000    0.00000000
     atom  208 type  1   force =     0.00000000    0.00000000    0.00000000
     atom  209 type  1   force =     0.00000000    0.00000000    0.00000000
     atom  210 type  1   force =     0.00000000    0.00000000    0.00000000
     atom  211 type  1   force =     0.00000000    0.00000000    0.00000000
     atom  212 type  1   force =     0.00000000    0.00000000    0.00000000
     atom  213 type  1   force =     0.00000000    0.00000000    0.00000000
     atom  214 type  1   force =     0.00000000    0.00000000    0.00000000
     atom  215 type  1   force =     0.00000000    0.00000000    0.00000000
     atom  216 type  2   force =     0.00000000    0.00000000    0.00000000
     atom  217 type  2   force =     0.00000000    0.00000000    0.00000000
     atom  218 type  2   force =     0.00000000    0.00000000    0.00000000
     atom  219 type  2   force =     0.00000000    0.00000000    0.00000000
     The SCF correction term to forces
     atom    1 type  1   force =     0.00000769   -0.00000177   -0.00000134
     atom    2 type  1   force =    -0.00000352    0.00000556   -0.00001591
     atom    3 type  1   force =    -0.00001092    0.00000437   -0.00000956
     atom    4 type  1   force =    -0.00001225    0.00000304   -0.00001655
     atom    5 type  1   force =    -0.00000418   -0.00000179   -0.00001579
     atom    6 type  1   force =    -0.00000388   -0.00000327   -0.00001244
     atom    7 type  1   force =    -0.00000322    0.00000600   -0.00002201
     atom    8 type  1   force =    -0.00000721    0.00000421   -0.00001917
     atom    9 type  1   force =    -0.00000012   -0.00000259   -0.00000868
     atom   10 type  1   force =    -0.00000095   -0.00000181    0.00000126
     atom   11 type  1   force =    -0.00000315   -0.00000075   -0.00000687
     atom   12 type  1   force =    -0.00000009    0.00000110    0.00000377
     atom   13 type  1   force =    -0.00000174   -0.00000326    0.00000979
     atom   14 type  1   force =    -0.00000242    0.00000114    0.00001541
     atom   15 type  1   force =     0.00000070   -0.00000079    0.00000977
     atom   16 type  1   force =     0.00000138    0.00000105    0.00001951
     atom   17 type  1   force =     0.00000076   -0.00000152    0.00001843
     atom   18 type  1   force =    -0.00000106    0.00000218    0.00001598
     atom   19 type  1   force =    -0.00000253    0.00000192    0.00001921
     atom   20 type  1   force =    -0.00000769    0.00000387    0.00001333
     atom   21 type  1   force =    -0.00000686    0.00000228    0.00000791
     atom   22 type  1   force =    -0.00001048    0.00000163   -0.00000293
     atom   23 type  1   force =     0.00000093    0.00000475    0.00001259
     atom   24 type  1   force =    -0.00000614    0.00000597    0.00000045
     atom   25 type  1   force =    -0.00000171    0.00000235   -0.00000769
     atom   26 type  1   force =    -0.00001041    0.00000206   -0.00001887
     atom   27 type  1   force =    -0.00001327   -0.00000314   -0.00000955
     atom   28 type  1   force =    -0.00001141    0.00000109   -0.00001488
     atom   29 type  1   force =    -0.00001159    0.00000320   -0.00002047
     atom   30 type  1   force =    -0.00000756    0.00000261   -0.00001441
     atom   31 type  1   force =    -0.00000492   -0.00000253   -0.00002171
     atom   32 type  1   force =    -0.00000641    0.00000118   -0.00001769
     atom   33 type  1   force =    -0.00000506    0.00000275   -0.00001393
     atom   34 type  1   force =    -0.00000346    0.00000260   -0.00000182
     atom   35 type  1   force =    -0.00000578    0.00000234   -0.00000990
     atom   36 type  1   force =    -0.00000130    0.00000306    0.00000168
     atom   37 type  1   force =     0.00000016    0.00000003    0.00001215
     atom   38 type  1   force =     0.00000012    0.00000070    0.00001787
     atom   39 type  1   force =    -0.00000200    0.00000212    0.00000701
     atom   40 type  1   force =    -0.00000118    0.00000217    0.00001644
     atom   41 type  1   force =     0.00000266    0.00000023    0.00002253
     atom   42 type  1   force =    -0.00000053    0.00000032    0.00002083
     atom   43 type  1   force =    -0.00000081   -0.00000153    0.00002126
     atom   44 type  1   force =    -0.00000433   -0.00000346    0.00001322
     atom   45 type  1   force =    -0.00000806    0.00000140    0.00000969
     atom   46 type  1   force =    -0.00001378    0.00000124   -0.00000338
     atom   47 type  1   force =     0.00000193   -0.00000399    0.00001514
     atom   48 type  1   force =    -0.00000550   -0.00000433    0.00000253
     atom   49 type  1   force =    -0.00000080   -0.00000677   -0.00000661
     atom   50 type  1   force =    -0.00000452   -0.00000391   -0.00001413
     atom   51 type  1   force =    -0.00000655   -0.00000358   -0.00000701
     atom   52 type  1   force =    -0.00000666   -0.00000270   -0.00001314
     atom   53 type  1   force =    -0.00000846   -0.00000208   -0.00001679
     atom   54 type  1   force =    -0.00000520    0.00000062   -0.00001203
     atom   55 type  1   force =     0.00000086   -0.00000490   -0.00001670
     atom   56 type  1   force =    -0.00000220   -0.00000399   -0.00001452
     atom   57 type  1   force =    -0.00000134   -0.00000236   -0.00001086
     atom   58 type  1   force =    -0.00000137   -0.00000027   -0.00000040
     atom   59 type  1   force =    -0.00000189   -0.00000320   -0.00000723
     atom   60 type  1   force =    -0.00000247   -0.00000258    0.00000095
[...]
     atom  205 type  1   force =     0.00000013   -0.00000051    0.00000713
     atom  206 type  1   force =    -0.00000010    0.00000001    0.00001385
     atom  207 type  1   force =     0.00000299   -0.00000472    0.00000934
     atom  208 type  1   force =     0.00000392   -0.00000379    0.00001444
     atom  209 type  1   force =     0.00000255   -0.00000009    0.00001338
     atom  210 type  1   force =     0.00000445    0.00000017    0.00001176
     atom  211 type  1   force =     0.00000185   -0.00000298    0.00001648
     atom  212 type  1   force =     0.00000308   -0.00000200    0.00001441
     atom  213 type  1   force =     0.00000570   -0.00000161    0.00000950
     atom  214 type  1   force =     0.00000335   -0.00000276    0.00000012
     atom  215 type  1   force =     0.00000570   -0.00000326    0.00000453
     atom  216 type  2   force =     0.00000065   -0.00000007   -0.00000083
     atom  217 type  2   force =    -0.00000108   -0.00000031   -0.00000343
     atom  218 type  2   force =     0.00000118   -0.00000119   -0.00000438
     atom  219 type  2   force =    -0.00000128   -0.00000072    0.00000163

     Total force =     0.055622     Total SCF correction =     0.000191

     Computing stress (Cartesian axis) and pressure

          total   stress  (Ry/bohr**3)                   (kbar)     P=  -15.20
   0.00004665   0.00013050  -0.00025064          6.86     19.20    -36.87
   0.00013050  -0.00006360  -0.00004653         19.20     -9.36     -6.84
  -0.00025064  -0.00004653  -0.00029307        -36.87     -6.84    -43.11

     kinetic stress (kbar)   2198.95     17.59    -35.19
                               17.59   2179.59     -5.93
                              -35.19     -5.93   2143.46

     local   stress (kbar)  -1054.85    -41.14     57.51
                              -41.14  -1183.53      9.73
                               57.51      9.73  -1359.89

     nonloc. stress (kbar)   2466.55      0.72     -4.24
                                0.72   2479.28     -1.28
                               -4.24     -1.28   2493.34

     hartree stress (kbar)    183.23     15.67    -21.33
                               15.67    200.16     -3.06
                              -21.33     -3.06    226.10

     exc-cor stress (kbar)   -774.51     -0.02      0.23
                               -0.02   -774.06      0.03
                                0.23      0.03   -773.30

     corecor stress (kbar)      0.00      0.00      0.00
                                0.00      0.00      0.00
                                0.00      0.00      0.00

     ewald   stress (kbar)  -3012.51     26.38    -33.85
                               26.38  -2910.80     -6.34
                              -33.85     -6.34  -2772.81

     hubbard stress (kbar)      0.00      0.00      0.00
                                0.00      0.00      0.00
                                0.00      0.00      0.00

     london  stress (kbar)      0.00      0.00      0.00
                                0.00      0.00      0.00
                                0.00      0.00      0.00

     DFT-D3  stress (kbar)      0.00      0.00      0.00
                                0.00      0.00      0.00
                                0.00      0.00      0.00

     XDM     stress (kbar)      0.00      0.00      0.00
                                0.00      0.00      0.00
                                0.00      0.00      0.00

     dft-nl  stress (kbar)      0.00      0.00      0.00
                                0.00      0.00      0.00
                                0.00      0.00      0.00

     TS-vdW  stress (kbar)      0.00      0.00      0.00
                                0.00      0.00      0.00
                                0.00      0.00      0.00

     Writing output data file vacancy_optimize1.save

     General routines

     Parallel routines

   This run was terminated on:   0:16:58   8Nov2020

   JOB DONE.