     Program PWSCF v.6.2 (svn rev. 14038) starts on  7Nov2020 at  8:43:44

     R & G space division:  proc/nbgrp/npool/nimage =       8
     Waiting for input...
     Reading input from standard input
Warning: card &IONS ignored
Warning: card / ignored

     Current dimensions of program PWSCF are:
     Max number of different atomic species (ntypx) = 10
     Max number of k-points (npk) =  40000
     Max angular momentum in pseudopotentials (lmaxx) =  3

     Subspace diagonalization in iterative solution of the eigenvalue problem:
     a serial algorithm will be used

     bravais-lattice index     =            0
     lattice parameter (alat)  =      30.1582  a.u.
     unit-cell volume          =   28164.1586 (a.u.)^3
     number of atoms/cell      =          219
     number of atomic types    =            2
     number of electrons       =       864.00
     number of Kohn-Sham states=          518
     kinetic-energy cutoff     =      42.0000  Ry
     charge density cutoff     =     168.0000  Ry
     convergence threshold     =      1.0E-08
     mixing beta               =       0.3000
     number of iterations used =            8  plain     mixing
     Exchange-correlation      = SLA-PW-PBX-PBC ( 1  4  3  4 0 0)

     celldm(1)=  30.158192  celldm(2)=   0.000000  celldm(3)=   0.000000
     celldm(4)=   0.000000  celldm(5)=   0.000000  celldm(6)=   0.000000

     crystal axes: (cart. coord. in units of alat)
               a(1) = (   1.000000   0.000000   0.000000 )
               a(2) = (   0.016282   0.993867   0.000000 )
               a(3) = (   0.029710   0.004038   1.033125 )

     reciprocal axes: (cart. coord. in units 2 pi/alat)
               b(1) = (  1.000000 -0.016383 -0.028693 )
               b(2) = (  0.000000  1.006171 -0.003932 )
               b(3) = (  0.000000  0.000000  0.967937 )

     PseudoPot. # 1 for Si read from file:
     ./Si.pbe-hgh.UPF
     MD5 check sum: 9a9f0f6e09139bfdb36b03ff6bc35900
     Pseudo is Norm-conserving, Zval =  4.0
     Generated in analytical, separable form
     Using radial grid of 1141 points,  3 beta functions with:
                l(1) =   0
                l(2) =   0
                l(3) =   1

     PseudoPot. # 2 for H  read from file:
     ./H.pbe-hgh.UPF
     MD5 check sum: 5f350582108a937bec95f27f5610ab08
     Pseudo is Norm-conserving, Zval =  1.0
     Generated in analytical, separable form
     Using radial grid of  929 points,  0 beta functions with:

     atomic species   valence    mass     pseudopotential
        Si             4.00    28.08000     Si( 1.00)
        H              1.00     1.00784     H ( 1.00)

     No symmetry found

                                    s                        frac. trans.

      isym =  1     identity

 cryst.   s( 1) = (     1          0          0      )
                  (     0          1          0      )
                  (     0          0          1      )

 cart.    s( 1) = (  1.0000000  0.0000000  0.0000000 )
                  (  0.0000000  1.0000000  0.0000000 )
                  (  0.0000000  0.0000000  1.0000000 )

   Cartesian axes

     site n.     atom                  positions (alat units)
         1           Si  tau(   1) = (   0.7904728   0.9137856   0.9444434  )
         2           Si  tau(   2) = (   0.0914667   0.0808269   0.0884390  )
         3           Si  tau(   3) = (   0.1703600   0.1665245   0.0015624  )
         4           Si  tau(   4) = (   0.2572114   0.2476871   0.0866241  )
         5           Si  tau(   5) = (   0.1753226   0.0008191   0.1760031  )
         6           Si  tau(   6) = (   0.2608700   0.0835284   0.2599383  )
         7           Si  tau(   7) = (   0.0080958   0.1652320   0.1713283  )
         8           Si  tau(   8) = (   0.0951936   0.2469854   0.2570053  )
         9           Si  tau(   9) = (   0.0108956   0.0015835   0.3457022  )
        10           Si  tau(  10) = (   0.0976519   0.0832236   0.4306560  )
        11           Si  tau(  11) = (   0.1798503   0.1677003   0.3456484  )
        12           Si  tau(  12) = (   0.2668135   0.2490973   0.4306746  )
        13           Si  tau(  13) = (   0.1821495   0.0021435   0.5174839  )
        14           Si  tau(  14) = (   0.2691887   0.0836516   0.6023056  )
        15           Si  tau(  15) = (   0.0181262   0.1680591   0.5173073  )
        16           Si  tau(  16) = (   0.1051217   0.2494691   0.6023510  )
        17           Si  tau(  17) = (   0.0199580   0.0027468   0.6887988  )
        18           Si  tau(  18) = (   0.1062634   0.0849083   0.7738363  )
        19           Si  tau(  19) = (   0.1897163   0.1684765   0.6892213  )
        20           Si  tau(  20) = (   0.2764585   0.2497373   0.7747424  )
        21           Si  tau(  21) = (   0.1919847   0.0074415   0.8617583  )
        22           Si  tau(  22) = (   0.2794468   0.0862240   0.9478868  )
        23           Si  tau(  23) = (   0.0282954   0.1673713   0.8636624  )
        24           Si  tau(  24) = (   0.1146970   0.2501901   0.9478145  )
        25           Si  tau(  25) = (   0.0060179   0.3319355   0.0007518  )
        26           Si  tau(  26) = (   0.0929276   0.4131911   0.0859710  )
        27           Si  tau(  27) = (   0.1754152   0.4971260   0.0007260  )
        28           Si  tau(  28) = (   0.2627231   0.5778135   0.0862873  )
        29           Si  tau(  29) = (   0.1775508   0.3324711   0.1731404  )
        30           Si  tau(  30) = (   0.2647473   0.4135124   0.2584496  )
        31           Si  tau(  31) = (   0.0134555   0.4977455   0.1729854  )
        32           Si  tau(  32) = (   0.1006778   0.5783364   0.2587513  )
        33           Si  tau(  33) = (   0.0159771   0.3318481   0.3443446  )
        34           Si  tau(  34) = (   0.1026841   0.4134089   0.4298026  )
        35           Si  tau(  35) = (   0.1855648   0.4980528   0.3456970  )
        36           Si  tau(  36) = (   0.2723161   0.5799099   0.4307087  )
        37           Si  tau(  37) = (   0.1875668   0.3338900   0.5176358  )
        38           Si  tau(  38) = (   0.2744031   0.4152921   0.6029409  )
        39           Si  tau(  39) = (   0.0235018   0.4976800   0.5173393  )
        40           Si  tau(  40) = (   0.1105892   0.5793266   0.6018954  )
        41           Si  tau(  41) = (   0.0255958   0.3329590   0.6903753  )
        42           Si  tau(  42) = (   0.1125801   0.4150218   0.7748632  )
        43           Si  tau(  43) = (   0.1949705   0.4997689   0.6902224  )
        44           Si  tau(  44) = (   0.2809789   0.5820861   0.7757052  )
        45           Si  tau(  45) = (   0.1970432   0.3340751   0.8620445  )
        46           Si  tau(  46) = (   0.2840617   0.4158812   0.9469529  )
        47           Si  tau(  47) = (   0.0334969   0.5003490   0.8615372  )
        48           Si  tau(  48) = (   0.1205230   0.5818843   0.9465872  )
        49           Si  tau(  49) = (   0.0112550   0.6620551   0.0007131  )
        50           Si  tau(  50) = (   0.0986614   0.7425049   0.0867322  )
        51           Si  tau(  51) = (   0.1813688   0.8287639   0.0052040  )
        52           Si  tau(  52) = (   0.2694974   0.9104471   0.0879165  )
        53           Si  tau(  53) = (   0.1834710   0.6623237   0.1737075  )
        54           Si  tau(  54) = (   0.2702741   0.7444313   0.2584630  )
        55           Si  tau(  55) = (   0.0234611   0.8280923   0.1756560  )
        56           Si  tau(  56) = (   0.1084107   0.9111922   0.2602534  )
        57           Si  tau(  57) = (   0.0219398   0.6626053   0.3467291  )
        58           Si  tau(  58) = (   0.1086186   0.7449023   0.4311302  )
        59           Si  tau(  59) = (   0.1917568   0.8289280   0.3465121  )
        60           Si  tau(  60) = (   0.2782792   0.9110659   0.4311209  )
[...]
       205           Si  tau( 205) = (   0.8591292   0.6645673   0.5163775  )
       206           Si  tau( 206) = (   0.9461396   0.7455353   0.6014811  )
       207           Si  tau( 207) = (   0.6954289   0.8298536   0.5167225  )
       208           Si  tau( 208) = (   0.7819043   0.9117039   0.6014946  )
       209           Si  tau( 209) = (   0.6975004   0.6649409   0.6892792  )
       210           Si  tau( 210) = (   0.7844053   0.7464359   0.7742010  )
       211           Si  tau( 211) = (   0.8661835   0.8302188   0.6879661  )
       212           Si  tau( 212) = (   0.9517785   0.9131032   0.7723786  )
       213           Si  tau( 213) = (   0.8688058   0.6647962   0.8607738  )
       214           Si  tau( 214) = (   0.9559228   0.7456254   0.9457307  )
       215           Si  tau( 215) = (   0.7041366   0.8308679   0.8606694  )
       216           H   tau( 216) = (   0.9805820   0.0227743   1.0046488  )
       217           H   tau( 217) = (   0.1847632   0.8461459   0.8826006  )
       218           H   tau( 218) = (   0.0486263   0.0211831   0.0296714  )
       219           H   tau( 219) = (   0.8741697   0.8423221   0.1483268  )

   Crystallographic axes

     site n.     atom                  positions (cryst. coord.)
         1           Si  tau(   1) = (  0.7484030  0.9157110  0.9141620  )
         2           Si  tau(   2) = (  0.0876049  0.0809779  0.0856034  )
         3           Si  tau(   3) = (  0.1675870  0.1675460  0.0015123  )
         4           Si  tau(   4) = (  0.2506680  0.2488750  0.0838467  )
         5           Si  tau(   5) = (  0.1702590  0.0001321  0.1703600  )
         6           Si  tau(   6) = (  0.2520430  0.0830217  0.2516040  )
         7           Si  tau(   7) = (  0.0004728  0.1655780  0.1658350  )
         8           Si  tau(   8) = (  0.0837729  0.2474990  0.2487650  )
         9           Si  tau(   9) = (  0.0009502  0.0002339  0.3346180  )
        10           Si  tau(  10) = (  0.0839314  0.0820437  0.4168480  )
        11           Si  tau(  11) = (  0.1671850  0.1673760  0.3345660  )
        12           Si  tau(  12) = (  0.2503750  0.2489410  0.4168660  )
        13           Si  tau(  13) = (  0.1672660  0.0001218  0.5008920  )
        14           Si  tau(  14) = (  0.2505360  0.0817994  0.5829940  )
        15           Si  tau(  15) = (  0.0005295  0.1670620  0.5007210  )
        16           Si  tau(  16) = (  0.0837511  0.2486400  0.5830380  )
        17           Si  tau(  17) = (  0.0001490  0.0000552  0.6667140  )
        18           Si  tau(  18) = (  0.0826683  0.0823893  0.7490250  )
        19           Si  tau(  19) = (  0.1671800  0.1668060  0.6671230  )
        20           Si  tau(  20) = (  0.2501370  0.2482320  0.7499020  )
        21           Si  tau(  21) = (  0.1671360  0.0040987  0.8341280  )
        22           Si  tau(  22) = (  0.2508360  0.0830287  0.9174950  )
        23           Si  tau(  23) = (  0.0007719  0.1650080  0.8359710  )
        24           Si  tau(  24) = (  0.0834021  0.2480070  0.9174250  )
        25           Si  tau(  25) = (  0.0005583  0.3339810  0.0007277  )
        26           Si  tau(  26) = (  0.0836915  0.4154030  0.0832145  )
        27           Si  tau(  27) = (  0.1672500  0.5001910  0.0007027  )
[...]
     atom   44 type  1   force =     0.00000000    0.00000000    0.00000000
     atom   45 type  1   force =     0.00000000    0.00000000    0.00000000
     atom   46 type  1   force =     0.00000000    0.00000000    0.00000000
     atom   47 type  1   force =     0.00000000    0.00000000    0.00000000
     atom   48 type  1   force =     0.00000000    0.00000000    0.00000000
     atom   49 type  1   force =     0.00000000    0.00000000    0.00000000
     atom   50 type  1   force =     0.00000000    0.00000000    0.00000000
     atom   51 type  1   force =     0.00000000    0.00000000    0.00000000
     atom   52 type  1   force =     0.00000000    0.00000000    0.00000000
     atom   53 type  1   force =     0.00000000    0.00000000    0.00000000
     atom   54 type  1   force =     0.00000000    0.00000000    0.00000000
     atom   55 type  1   force =     0.00000000    0.00000000    0.00000000
     atom   56 type  1   force =     0.00000000    0.00000000    0.00000000
     atom   57 type  1   force =     0.00000000    0.00000000    0.00000000
     atom   58 type  1   force =     0.00000000    0.00000000    0.00000000
     atom   59 type  1   force =     0.00000000    0.00000000    0.00000000
     atom   60 type  1   force =     0.00000000    0.00000000    0.00000000
[...]
     atom  205 type  1   force =     0.00000000    0.00000000    0.00000000
     atom  206 type  1   force =     0.00000000    0.00000000    0.00000000
     atom  207 type  1   force =     0.00000000    0.00000000    0.00000000
     atom  208 type  1   force =     0.00000000    0.00000000    0.00000000
     atom  209 type  1   force =     0.00000000    0.00000000    0.00000000
     atom  210 type  1   force =     0.00000000    0.00000000    0.00000000
     atom  211 type  1   force =     0.00000000    0.00000000    0.00000000
     atom  212 type  1   force =     0.00000000    0.00000000    0.00000000
     atom  213 type  1   force =     0.00000000    0.00000000    0.00000000
     atom  214 type  1   force =     0.00000000    0.00000000    0.00000000
     atom  215 type  1   force =     0.00000000    0.00000000    0.00000000
     atom  216 type  2   force =     0.00000000    0.00000000    0.00000000
     atom  217 type  2   force =     0.00000000    0.00000000    0.00000000
     atom  218 type  2   force =     0.00000000    0.00000000    0.00000000
     atom  219 type  2   force =     0.00000000    0.00000000    0.00000000
     The Hubbard contrib.    to forces
     atom    1 type  1   force =     0.00000000    0.00000000    0.00000000
     atom    2 type  1   force =     0.00000000    0.00000000    0.00000000
     atom    3 type  1   force =     0.00000000    0.00000000    0.00000000
     atom    4 type  1   force =     0.00000000    0.00000000    0.00000000
     atom    5 type  1   force =     0.00000000    0.00000000    0.00000000
     atom    6 type  1   force =     0.00000000    0.00000000    0.00000000
     atom    7 type  1   force =     0.00000000    0.00000000    0.00000000
     atom    8 type  1   force =     0.00000000    0.00000000    0.00000000
     atom    9 type  1   force =     0.00000000    0.00000000    0.00000000
     atom   10 type  1   force =     0.00000000    0.00000000    0.00000000
     atom   11 type  1   force =     0.00000000    0.00000000    0.00000000
     atom   12 type  1   force =     0.00000000    0.00000000    0.00000000
     atom   13 type  1   force =     0.00000000    0.00000000    0.00000000
     atom   14 type  1   force =     0.00000000    0.00000000    0.00000000
     atom   15 type  1   force =     0.00000000    0.00000000    0.00000000
     atom   16 type  1   force =     0.00000000    0.00000000    0.00000000
     atom   17 type  1   force =     0.00000000    0.00000000    0.00000000
     atom   18 type  1   force =     0.00000000    0.00000000    0.00000000
     atom   19 type  1   force =     0.00000000    0.00000000    0.00000000
     atom   20 type  1   force =     0.00000000    0.00000000    0.00000000
     atom   21 type  1   force =     0.00000000    0.00000000    0.00000000
     atom   22 type  1   force =     0.00000000    0.00000000    0.00000000
     atom   23 type  1   force =     0.00000000    0.00000000    0.00000000
     atom   24 type  1   force =     0.00000000    0.00000000    0.00000000
     atom   25 type  1   force =     0.00000000    0.00000000    0.00000000
     atom   26 type  1   force =     0.00000000    0.00000000    0.00000000
     atom   27 type  1   force =     0.00000000    0.00000000    0.00000000
     atom   28 type  1   force =     0.00000000    0.00000000    0.00000000
     atom   29 type  1   force =     0.00000000    0.00000000    0.00000000
     atom   30 type  1   force =     0.00000000    0.00000000    0.00000000
     atom   31 type  1   force =     0.00000000    0.00000000    0.00000000
     atom   32 type  1   force =     0.00000000    0.00000000    0.00000000
     atom   33 type  1   force =     0.00000000    0.00000000    0.00000000
     atom   34 type  1   force =     0.00000000    0.00000000    0.00000000
     atom   35 type  1   force =     0.00000000    0.00000000    0.00000000
     atom   36 type  1   force =     0.00000000    0.00000000    0.00000000
     atom   37 type  1   force =     0.00000000    0.00000000    0.00000000
     atom   38 type  1   force =     0.00000000    0.00000000    0.00000000
     atom   39 type  1   force =     0.00000000    0.00000000    0.00000000
     atom   40 type  1   force =     0.00000000    0.00000000    0.00000000
     atom   41 type  1   force =     0.00000000    0.00000000    0.00000000
     atom   42 type  1   force =     0.00000000    0.00000000    0.00000000
     atom   43 type  1   force =     0.00000000    0.00000000    0.00000000
     atom   44 type  1   force =     0.00000000    0.00000000    0.00000000
     atom   45 type  1   force =     0.00000000    0.00000000    0.00000000
     atom   46 type  1   force =     0.00000000    0.00000000    0.00000000
     atom   47 type  1   force =     0.00000000    0.00000000    0.00000000
     atom   48 type  1   force =     0.00000000    0.00000000    0.00000000
     atom   49 type  1   force =     0.00000000    0.00000000    0.00000000
     atom   50 type  1   force =     0.00000000    0.00000000    0.00000000
     atom   51 type  1   force =     0.00000000    0.00000000    0.00000000
     atom   52 type  1   force =     0.00000000    0.00000000    0.00000000
     atom   53 type  1   force =     0.00000000    0.00000000    0.00000000
     atom   54 type  1   force =     0.00000000    0.00000000    0.00000000
     atom   55 type  1   force =     0.00000000    0.00000000    0.00000000
     atom   56 type  1   force =     0.00000000    0.00000000    0.00000000
     atom   57 type  1   force =     0.00000000    0.00000000    0.00000000
     atom   58 type  1   force =     0.00000000    0.00000000    0.00000000
     atom   59 type  1   force =     0.00000000    0.00000000    0.00000000
     atom   60 type  1   force =     0.00000000    0.00000000    0.00000000
[...]
     atom  205 type  1   force =     0.00000000    0.00000000    0.00000000
     atom  206 type  1   force =     0.00000000    0.00000000    0.00000000
     atom  207 type  1   force =     0.00000000    0.00000000    0.00000000
     atom  208 type  1   force =     0.00000000    0.00000000    0.00000000
     atom  209 type  1   force =     0.00000000    0.00000000    0.00000000
     atom  210 type  1   force =     0.00000000    0.00000000    0.00000000
     atom  211 type  1   force =     0.00000000    0.00000000    0.00000000
     atom  212 type  1   force =     0.00000000    0.00000000    0.00000000
     atom  213 type  1   force =     0.00000000    0.00000000    0.00000000
     atom  214 type  1   force =     0.00000000    0.00000000    0.00000000
     atom  215 type  1   force =     0.00000000    0.00000000    0.00000000
     atom  216 type  2   force =     0.00000000    0.00000000    0.00000000
     atom  217 type  2   force =     0.00000000    0.00000000    0.00000000
     atom  218 type  2   force =     0.00000000    0.00000000    0.00000000
     atom  219 type  2   force =     0.00000000    0.00000000    0.00000000
     The SCF correction term to forces
     atom    1 type  1   force =     0.00000132    0.00000120   -0.00000467
     atom    2 type  1   force =    -0.00000005    0.00000563    0.00001057
     atom    3 type  1   force =    -0.00000503    0.00000142    0.00000638
     atom    4 type  1   force =    -0.00000596    0.00000048    0.00001137
     atom    5 type  1   force =    -0.00000184    0.00000347    0.00001230
     atom    6 type  1   force =    -0.00000364    0.00000101    0.00001002
     atom    7 type  1   force =     0.00000381    0.00000031    0.00000844
     atom    8 type  1   force =     0.00000125    0.00000132    0.00000926
     atom    9 type  1   force =    -0.00000109   -0.00000007    0.00000685
     atom   10 type  1   force =    -0.00000224    0.00000059    0.00000148
     atom   11 type  1   force =    -0.00000216    0.00000139    0.00000500
     atom   12 type  1   force =    -0.00000276    0.00000352   -0.00000126
     atom   13 type  1   force =    -0.00000132   -0.00000350   -0.00000392
     atom   14 type  1   force =    -0.00000188   -0.00000299   -0.00000852
     atom   15 type  1   force =    -0.00000169   -0.00000089   -0.00000290
     atom   16 type  1   force =    -0.00000452    0.00000075   -0.00000711
     atom   17 type  1   force =    -0.00000079    0.00000056   -0.00001080
     atom   18 type  1   force =    -0.00000299   -0.00000057   -0.00000970
     atom   19 type  1   force =    -0.00000533   -0.00000205   -0.00001047
     atom   20 type  1   force =    -0.00000355    0.00000055   -0.00000939
     atom   21 type  1   force =    -0.00000268    0.00000056   -0.00000841
     atom   22 type  1   force =    -0.00000435   -0.00000024   -0.00000181
     atom   23 type  1   force =    -0.00000540    0.00000095   -0.00000598
     atom   24 type  1   force =    -0.00000448    0.00000054    0.00000029
     atom   25 type  1   force =    -0.00000092   -0.00000334    0.00000233
     atom   26 type  1   force =    -0.00000105   -0.00000235    0.00000969
     atom   27 type  1   force =    -0.00000360   -0.00000481    0.00000607
     atom   28 type  1   force =    -0.00000061   -0.00000116    0.00001409
     atom   29 type  1   force =    -0.00000176   -0.00000085    0.00001255
     atom   30 type  1   force =    -0.00000119    0.00000142    0.00001293
     atom   31 type  1   force =     0.00000205   -0.00000433    0.00001140
     atom   32 type  1   force =     0.00000272   -0.00000081    0.00001391
     atom   33 type  1   force =     0.00000303   -0.00000105    0.00000633
     atom   34 type  1   force =     0.00000185    0.00000156    0.00000132
     atom   35 type  1   force =     0.00000266    0.00000004    0.00000792
     atom   36 type  1   force =     0.00000601    0.00000234    0.00000325
     atom   37 type  1   force =    -0.00000145    0.00000255   -0.00000675
     atom   38 type  1   force =     0.00000110    0.00000662   -0.00001161
     atom   39 type  1   force =    -0.00000101    0.00000033   -0.00000274
     atom   40 type  1   force =     0.00000081    0.00000120   -0.00000859
     atom   41 type  1   force =    -0.00000629   -0.00000062   -0.00000948
     atom   42 type  1   force =    -0.00000554    0.00000060   -0.00001004
     atom   43 type  1   force =    -0.00000015    0.00000243   -0.00001466
     atom   44 type  1   force =     0.00000250    0.00000233   -0.00001755
     atom   45 type  1   force =    -0.00000593   -0.00000170   -0.00000580
     atom   46 type  1   force =    -0.00000403   -0.00000049   -0.00000095
     atom   47 type  1   force =    -0.00000508   -0.00000441   -0.00000895
     atom   48 type  1   force =    -0.00000389   -0.00000226   -0.00000313
     atom   49 type  1   force =    -0.00000126   -0.00000359    0.00000277
     atom   50 type  1   force =    -0.00000067    0.00000145    0.00001108
     atom   51 type  1   force =     0.00000028    0.00000245    0.00000341
     atom   52 type  1   force =    -0.00000143    0.00000188    0.00000923
     atom   53 type  1   force =     0.00000145   -0.00000303    0.00001681
     atom   54 type  1   force =     0.00000305   -0.00000127    0.00001692
     atom   55 type  1   force =    -0.00000019    0.00000144    0.00001528
     atom   56 type  1   force =    -0.00000195    0.00000096    0.00001190
     atom   57 type  1   force =     0.00000119   -0.00000143    0.00000903
     atom   58 type  1   force =     0.00000254   -0.00000061    0.00000379
     atom   59 type  1   force =     0.00000260   -0.00000317    0.00000893
     atom   60 type  1   force =     0.00000206   -0.00000449    0.00000361
[...]
     atom  205 type  1   force =    -0.00000579   -0.00000099   -0.00000151
     atom  206 type  1   force =    -0.00000318   -0.00000083   -0.00000811
     atom  207 type  1   force =    -0.00000424   -0.00000794   -0.00000274
     atom  208 type  1   force =    -0.00000132   -0.00000365   -0.00000767
     atom  209 type  1   force =    -0.00000302   -0.00000258   -0.00001612
     atom  210 type  1   force =    -0.00000264   -0.00000229   -0.00001608
     atom  211 type  1   force =    -0.00000345   -0.00000317   -0.00001267
     atom  212 type  1   force =     0.00000060    0.00000109   -0.00001195
     atom  213 type  1   force =    -0.00000257   -0.00000433   -0.00001365
     atom  214 type  1   force =    -0.00000070    0.00000021   -0.00000600
     atom  215 type  1   force =    -0.00000038   -0.00000321   -0.00001462
     atom  216 type  2   force =     0.00000067    0.00000018    0.00000075
     atom  217 type  2   force =    -0.00000002    0.00000066   -0.00000253
     atom  218 type  2   force =    -0.00000059   -0.00000004    0.00000054
     atom  219 type  2   force =     0.00000031    0.00000055    0.00000356

     Total force =     0.036984     Total SCF correction =     0.000163

     Computing stress (Cartesian axis) and pressure

          total   stress  (Ry/bohr**3)                   (kbar)     P=   49.67
   0.00039738  -0.00007619  -0.00012684         58.46    -11.21    -18.66
  -0.00007619   0.00042789  -0.00001851        -11.21     62.94     -2.72
  -0.00012684  -0.00001851   0.00018772        -18.66     -2.72     27.61

     kinetic stress (kbar)   2406.62    -11.69    -20.62
                              -11.69   2411.09     -3.06
                              -20.62     -3.06   2368.96

     local   stress (kbar)  -1179.30     16.45     14.21
                               16.45  -1156.78      4.90
                               14.21      4.90  -1364.41

     nonloc. stress (kbar)   2704.12      1.05      0.24
                                1.05   2702.67     -0.05
                                0.24     -0.05   2721.92

     hartree stress (kbar)    195.89     -8.69     -9.83
                               -8.69    192.86     -2.38
                               -9.83     -2.38    220.54

     exc-cor stress (kbar)   -842.42      0.02      0.15
                                0.02   -842.55      0.01
                                0.15      0.01   -841.75

     corecor stress (kbar)      0.00      0.00      0.00
                                0.00      0.00      0.00
                                0.00      0.00      0.00

     ewald   stress (kbar)  -3226.45     -8.35     -2.81
                               -8.35  -3244.35     -2.15
                               -2.81     -2.15  -3077.64

     hubbard stress (kbar)      0.00      0.00      0.00
                                0.00      0.00      0.00
                                0.00      0.00      0.00

     london  stress (kbar)      0.00      0.00      0.00
                                0.00      0.00      0.00
                                0.00      0.00      0.00

     DFT-D3  stress (kbar)      0.00      0.00      0.00
                                0.00      0.00      0.00
                                0.00      0.00      0.00

     XDM     stress (kbar)      0.00      0.00      0.00
                                0.00      0.00      0.00
                                0.00      0.00      0.00

     dft-nl  stress (kbar)      0.00      0.00      0.00
                                0.00      0.00      0.00
                                0.00      0.00      0.00

     TS-vdW  stress (kbar)      0.00      0.00      0.00
                                0.00      0.00      0.00
                                0.00      0.00      0.00

     Writing output data file vacancy_optimize3.save

     General routines

     Parallel routines

   This run was terminated on:  11:15:43   7Nov2020

   JOB DONE.